##TITLE=HMDB0000094, Experimental spectrum with assignments
##JCAMP-DX=4.24
##ORIGIN=UNKNOWN
##OWNER=UNKNOWN
##DATA TYPE=LINK
##DATE=22/03/03
##TIME=15:04:07
##LONG DATE=2022/03/03 15:04:07 
##TITLE=Citric acid
##JCAMP-CS=3.7
##ORIGIN=UNKNOWN
##OWNER=UNKNOWN
##DATE=22/03/03
##TIME=15:04:07
##BLOCK_ID=1
##CROSS REFERENCE=NMR PEAK ASSIGNMENTS:BLOCK_ID=4
##LONG DATE=2022/03/03 15:04:07 
##MOLFORM=C6 H8 O7
##ATOMLIST=
1 O 0
2 C 0
3 O 0
4 C 0
5 C 0
6 O 0
7 C 0
8 C 0
9 O 0
10 O 0
11 C 0
12 O 0
13 O 0
14 H 0
15 H 0
16 H 0
17 H 0
18 H 0
19 H 0
20 H 0
21 H 0
##BONDLIST=
1 2 D
2 3 S
2 4 S
4 5 S
5 6 S
5 7 S
7 8 S
8 9 D
8 10 S
5 11 S
11 12 D
11 13 S
3 14 S
4 15 S
4 16 S
6 17 S
7 18 S
7 19 S
10 20 S
13 21 S
##$MOLFILE=
     RDKit          3D

 21 20  0  0  0  0  0  0  0  0999 V2000
   -2.9061    0.2748    0.4472 O   0  0  0  0  0  0  0  0  0  0  0  0
   -2.0809   -0.6685    0.2598 C   0  0  0  0  0  0  0  0  0  0  0  0
   -2.4767   -1.7967   -0.4140 O   0  0  0  0  0  0  0  0  0  0  0  0
   -0.6811   -0.5591    0.7678 C   0  0  0  0  0  0  0  0  0  0  0  0
    0.0647    0.3406   -0.2084 C   0  0  2  0  0  0  0  0  0  0  0  0
    0.0653   -0.1904   -1.4894 O   0  0  0  0  0  0  0  0  0  0  0  0
    1.4859    0.5850    0.2662 C   0  0  0  0  0  0  0  0  0  0  0  0
    2.2666   -0.6470    0.3949 C   0  0  0  0  0  0  0  0  0  0  0  0
    2.0663   -1.3891    1.3934 O   0  0  0  0  0  0  0  0  0  0  0  0
    3.2296   -1.0734   -0.5125 O   0  0  0  0  0  0  0  0  0  0  0  0
   -0.6225    1.6415   -0.2027 C   0  0  0  0  0  0  0  0  0  0  0  0
   -0.7244    2.2745    0.8623 O   0  0  0  0  0  0  0  0  0  0  0  0
   -1.1479    2.1543   -1.3615 O   0  0  0  0  0  0  0  0  0  0  0  0
   -3.4653   -2.0493   -0.4135 H   0  0  0  0  0  0  0  0  0  0  0  0
   -0.2228   -1.5632    0.8316 H   0  0  0  0  0  0  0  0  0  0  0  0
   -0.6690   -0.0384    1.7401 H   0  0  0  0  0  0  0  0  0  0  0  0
   -0.1125   -1.1641   -1.4415 H   0  0  0  0  0  0  0  0  0  0  0  0
    1.9263    1.3262   -0.4309 H   0  0  0  0  0  0  0  0  0  0  0  0
    1.4151    1.1293    1.2522 H   0  0  0  0  0  0  0  0  0  0  0  0
    3.9683   -1.7396   -0.2598 H   0  0  0  0  0  0  0  0  0  0  0  0
   -1.3790    3.1526   -1.4815 H   0  0  0  0  0  0  0  0  0  0  0  0
  1  2  2  0
  2  3  1  0
  2  4  1  0
  4  5  1  0
  5  6  1  6
  5  7  1  0
  7  8  1  0
  8  9  2  0
  8 10  1  0
  5 11  1  0
 11 12  2  0
 11 13  1  0
  3 14  1  0
  4 15  1  0
  4 16  1  0
  6 17  1  0
  7 18  1  0
  7 19  1  0
 10 20  1  0
 13 21  1  0
M  END

##END=
##TITLE=Spectrum
##JCAMP-DX=5.01
##ORIGIN=UNKNOWN
##OWNER=UNKNOWN
##DATA TYPE=NMR SPECTRUM
##BLOCK_ID=2
##CROSS REFERENCE=NMR PEAK TABLE:BLOCK_ID=3
##DATE=22/03/03
##TIME=15:04:07
##TEMPERATURE=25
##LONG DATE=2022/03/03 15:04:07 
##.OBSERVE FREQUENCY=500
##.OBSERVE NUCLEUS=1H
##.SOLVENT NAME=H2O
##.SHIFT REFERENCE=INTERNAL,DSS,58950.00,0
##XUNITS=PPM
##FIRSTX=10.80052
##LASTX=-1.20647
##MINX=-1.20647
##MAXX=10.80052
##XFACTOR=0.00018000000000029104
##NPOINTS=65536
##YUNITS=ARBITRARY UNITS
##FIRSTY=895816.9
##LASTY=686159.2
##MINY=-195589900.0
##MAXY=46061130000.0
##YFACTOR=1405717.0323801385
##XYDATA=(X++(Y..Y)), XYDATA $$ DIF
60003Aj%%%%J%%%j%%J%%j%%J%%%%j%%%%%J%%j%%%%%%%%%%%%%%%j%%J%J%%%%j%%%%%%%%%%%Jj%%
59928@%%%%%%j%%%%J%%%j%%J%%%%%%%%%%%%%%%j%%%%J%%%%%%jJ%%J%%%j%%%%j%J%%%%%%%J%%%%
59852A%%%%%j%%%%%%%%%%%%%%%%J%%%%%%j%%%%%J%%j%%%%%%%%%%%%%%j%%%%%J%j%%%%%J%%%j%J
59777@%j%%%J%%%%%%%%%j%%J%%%j%%%%%J%%%%j%%%%J%%j%%%%%%%J%%%%%%j%%%J%%j%%J%%J%j%%
59702@%%%%%%%%%%%%%%%%%%%%J%%%%%%%%%%%%%j%%%%J%%%%j%%%J%%%%%%%%%j%%j%%J%%%%%%%%%
59626@%%%%%%J%%%%%j%%%%%%%%Jj%J%%%j%%%%%Jj%%%%%%%%%%%J%j%%%J%%%%%%j%%%%%%%%%%%Jj
59551@j%%%J%%%%%%%%%%%%j%J%%%%%%%%j%%%%%%%%%%%%%J%%j%%%%%%%%%J%jJ%%%%%%%%j%%%J%%
59476@%%%%%J%%%j%J%%%%%j%%jJ%%%%%%%%%%%%%%J%%%j%%%%%%%%%%%%%%%%%%%%%J%j%%%j%%%J%
59400@%J%%%%%%j%%%J%%j%Jj%%%%%%%%%%%%%%%%%%%%%jJ%%%%j%%%J%%%%%%%%%j%J%J%%%%%%%%j
59325@%%%%J%%%%%%%%%%%j%j%%J%%%%Jj%%%%%j%%%%%%%%J%%%J%%j%%%%%%%%%J%%%%j%%J%j%%j%
59250aJ%%%%%%%%%%%%%%J%%%%%%j%%%%J%%%%%j%Jj%%%%%%%%%%%J%j%%%%%%%%%%%%%%%%J%%%j%%
59174@%%%%j%J%%J%j%J%%%%%%%%%%%j%%j%%%%%%J%J%%%%j%%%%%Jj%%%J%%j%%%j%%J%%%J%%%%%%
59099A%j%j%J%%%%%%%%j%%%%%%Jj%%%J%j%%%%J%j%%%J%j%J%%J%%%j%%%%%%%%%%j%%%J%%%%jJjJ
59024@%%%%%%%j%%%%%%%%%%J%%%%%%jJ%%%%%%%%%jJ%%J%%%%j%J%%%%%%j%%%%%%%%Jj%%%Jj%%%J
58948A%%%%%j%%%%%%%%%%%%%%%%%%%%%Jj%%%%%%j%%j%%%J%J%%%%j%%%%%%%%%J%%%%%%%%%%%%j%
58873aJ%jJ%j%%%%%%%%%%J%j%J%%j%%J%%%j%%%%%%%jJ%%%%%%%%%%%%%%%%%J%%%j%JJ%j%%j%%J%
58798@%%%%%Jj%%J%%%%%%j%%%%%%%%%%%%%%%%J%%%%j%%%j%J%j%%J%%%%%%%%%%%j%%%%%%J%%%%%
58722@%%%%%%j%%%%J%%Jj%%j%%JjJ%%%%j%J%%%%%%%J%%%%%%%jJj%%%%%%%j%%%J%%%%%%%J%j%%%
58647@%J%%%%j%%%%%%%%%%%JJ%j%j%%%%%J%%j%J%%%%j%%%%%%%%%%Jj%%%%%%%%%%%%%%%%%%jJ%%
58572@%%%%%%%%%j%%%%J%jJ%%%%%%%%%%%%%%%%%%%%%J%%%%%%%%%%%%%%%j%%%%%%%%%J%j%%%J%%
58496A%%%%%j%%%%%%J%%%%%%%%j%%J%%jJ%j%%%j%%J%%%%J%%%jjJ%%%%j%%%J%%j%%%%%%%%%%%%%
58421a%J%%jJ%%%%%%%%J%j%%%%%%%%Jj%j%%%%J%%%%%%%%%j%J%%%%%%%%%j%%%%%%%%%%%%%%J%%%
58346@%%j%%%J%%%%%%%%%%%jJ%%%%%%%%%%J%%%j%%J%%%%%j%%%%%%J%j%%%%%J%%j%%%%%%j%%jJ%
58270aJj%%%%%J%%%%%%jJ%%%%%%%%%%%%%%%%%Jj%J%j%j%J%%%%%%%%%J%%%%%%%%%jJ%%%jJ%%j%%
58195@%J%%%j%%%%%%%%%%%%%j%J%%%j%%%%J%Jj%j%%J%%Jj%j%%%%%J%j%%%J%%%j%%%%%%%%%%%%%
58120ajJ%%%%%%%%J%%%%j%%%%J%%%j%J%jJ%%%%%%%%%%j%J%%%%%%%J%j%%%%%%J%%%%%%j%%%J%%j
58044@%%%%%%%%%%%%%%%%jJ%%%%J%%%%j%%%%Jj%%%%%%%%%%%jJ%%%%j%J%%J%%%%j%%%%jJ%%%%%%
57969@%%J%j%%%%%%%%Jj%%%%%%J%%%%%%%j%%%J%%j%J%%%%%%%%%%%j%%J%%%%%%j%%%%J%%j%%%%j
57894a%%J%Jj%J%%%j%%j%%%%J%%%J%%%%%%%%%%%j%%%%%%%%%%%%%JJ%j%%jj%J%J%%%j%%%%%%%%%
57819@%%J%%j%%%%%%%%%%%%%%%%%%%%%%%%%J%%%%%%j%%j%%J%%%%%%%%%%%%j%J%%%j%J%%%%%%J%
57743Aj%j%%%J%%%%%%%%j%%%%%%%%%J%%%%%%jJ%j%%%%%%%%%%%%%%%%%J%%%j%%J%%%%%j%%%%JJ%
57668A%j%%%j%%%%J%%j%%Jj%J%%%%J%%%j%%j%%%%J%%%%%%j%J%%%%%%%%%%%j%%%J%J%%%%j%%j%%
57593aJ%j%%%%%J%j%%%%%%%%%%%%%%%%J%%%%j%%%%%%%j%%%%J%%%%%%J%%%%J%%j%%jJ%%J%J%jj%
57517@%%%Jj%%%J%j%%J%%j%%%%%%%%jJ%%%%%%%%%%%%J%j%Jj%%%%%%%%j%J%%%%%%%%%%J%j%%%%j
57442aJ%%%%%J%%%j%%%J%%%%j%Jj%%J%j%JjJ%%%j%%%%%%%%%J%j%J%%%%%%j%%%%%%%j%%%%J%%%J
57367AjJ%%%%%j%%%%%%%%j%J%%%%%j%%J%%%J%j%JJ%j%j%%%%%%%%%%%%%%%%Jj%%%%%%%%%%j%J%%
57291@%%%%%J%%j%%%%%%%%%%j%%J%%j%J%J%%%%%%%%%%%%%%%%%%%%%j%%Jj%%Jj%%%%%%%%%%J%%%
57216A%%%%j%%Jj%%%%%%%%%%J%j%%J%%%%%%%%%%%%%%%%%%j%J%%j%%%jJ%%%%%%j%%%%%%%%%J%%%
57141@%%%J%%%%j%%%%%%%%%%%%%%%%%%J%%j%%%%Jj%%%%%%%%%%J%%j%%%%%%%%jJ%%%%%%%jJj%%J
57065@%Jj%j%J%%%%%%%J%%%%%%%%%%%%%j%%%%%Jj%%%%%J%j%%Jj%%%%%%%%%%%%%%%%j%%%%%%%%%
56990a%%%%%%%J%%%jj%J%%%%%%%%%%%%%%%%J%%%%%j%%J%jJ%%%%%%%J%%%j%%%%jJ%J%%jj%%J%%J
56915A%%%%j%%%%%%%%%J%%%j%%%%%J%j%%%%%%%J%%%%j%%%%%%J%j%%%%j%%Jj%%%J%%%%j%%%J%%j
56839aJ%%j%%J%%j%J%%%%%%%%%jJ%Jj%j%%%J%j%%%%J%%%%%%%%%%%%j%J%%J%jJj%j%%J%%%%J%j%
56764@%%%%%%%j%%%%J%%%%j%%j%%J%%jJ%%%%%%%J%%%%j%%Jj%J%%J%%%j%J%%%j%%%%Jj%%j%%%%J
56689@%%%%%%%%%%%%%jJ%%%jJ%%%%%%%%%%j%%%%j%%%J%J%%%%%j%%%J%%%%j%%J%%%%%%%%%%%%%%
56613@%%j%J%%%%%J%%%%%%j%%J%%jJ%%%%%%%%j%%%%J%%%j%%J%J%%j%%j%%%%jJ%%%J%%j%%%%%%J
56538Aj%%%J%j%%%j%J%%%%J%%%j%%%%%j%J%%%%%%%%%%%%%%%%j%%%%%J%%%%%%%%%%%%Jj%J%%%%%
56463A%j%j%%%J%J%%%%%%%%%j%%%%%%%%%j%%%%%%%%%%%%J%%j%%%%%%%%%%J%%%%%j%J%Jj%J%%%%
56387A%j%%%%%%%%%%%%%%%%%%%%%j%%%J%%%%jJ%J%%j%%%%%%%%%%%j%J%%%j%J%%%%%J%j%%%%%%%
56312@%%%%%%%%%%%%%%%%%J%j%%%%j%%%%%J%j%%jJ%%%J%j%J%%%%%%j%%%%J%%%j%%J%%%%%%%%%%
56237@%j%%Jj%%J%%%%%%%j%J%%%%%%%%%%%%%%%%%%j%%%%%%%J%%%%%J%j%J%%%%%%%%%%%%%%%%%%
56161Aj%%%%%%%j%%%%%%%%%%%J%Jj%%%%j%J%%%%%%%J%jJ%%%%%%%%%j%jJ%%j%%J%%J%%%%j%%%%%
56086@%j%%J%Jj%%%%%%%Jj%%%%j%%%%%J%%%%J%%%%%j%%%%%%%%J%j%%%%%J%%%%j%%%J%%%%%j%%J
56011A%%%%%%%%%%j%%%jJ%%%%%%%%%%%J%%j%%%%%%j%%%%j%%%J%%%%J%%j%%%%%%Jj%%%%%%J%%%%
55935@%%%J%%%%j%%%%%%J%%%%j%%%%%J%%%j%%%j%J%%%%%%%%%%%%j%%%%j%%%%%J%%%%%%%%%Jj%%
55860a%%%%%%%%%%%%%%J%%%%%%%jJ%J%%j%%%%%%%j%%%%J%%%%j%%%J%j%%%J%j%%J%%%j%%%J%J%%
55785A%%j%%%%%%j%%J%%%%%%%%%%%%%J%%%%%%%j%%%%%%%j%%J%%%%%%%%%%%%j%%%%%%%J%%%%j%J
55710@%j%%J%%%%%%%%%j%%J%%%%%%%Jj%%%%%%%%%jJ%%%%%%%%%%%%%%%%%%J%%j%%%%%%%%%%%%%J
55634A%%%%%j%J%%%%j%%%J%j%J%J%%j%%j%%jJ%%%%%%%%J%%%jJj%%%%%%J%%%%j%%jJ%%%J%jJ%j%
55559@%%%j%%%%%%%%%%J%%%%%%%j%%J%%%%%%%%%%j%%%%%%%J%%%j%J%%j%%J%%%%%%%%%jJ%j%%%J
55484@%Jj%%%%%%J%%j%%%%%%%jJ%%%j%%%%%%%%%%%%%%%J%%%%j%%%%%J%%%jj%%%%%%J%j%J%%%%j
55408b%%%%JJ%j%%%%%%%%%J%%%%%%%j%J%J%%%%%%%%%%%%%j%%%%%%%J%j%%j%%J%%%%jJ%J%%%%%%
55333A%%jJj%%%%J%%%%j%%%%%%%%%%%%%%J%%%%%%%%j%%%%%%%%%%%%%%J%%jJ%j%%%%%%%%%%%j%%
55258a%%%J%%%%%%%%%jJ%%%%%%%%j%%%%J%%%%%%%%Jj%%%%%%%%%%%%%%%j%J%%%%%%%J%%j%%%%%%
55182@%%%%%%%%%%%%%%%%%j%%%Jj%%J%%%%%%j%%%%%%%%%%%J%J%j%%j%%%J%%%%j%%%%%%%%%J%%%
55107@%%%%%%%%%%%%j%%J%%%%%%%%%%%%%j%%%%%%%%J%J%%j%%%%%%%%%j%J%%%%%%%%%%%%%jJ%j%
55032aJ%%%%%%%%%%j%%J%%%%Jj%%%%%%%%%%%%J%%j%%%%j%%%%%%%J%j%%%%%%%%J%%%%%%%%%%%J%
54956A%%j%%jJ%%%J%%j%%J%%j%J%%%%%jJ%%%%%%%%Jj%%%%%j%%%%%%%%%%%%%%%%%%%J%%jJ%j%j%
54881ajJ%%%%%%%J%%%j%%%%%J%%%%%%%j%%J%j%%%J%%%%%%%%%%%%%J%%%%%j%%%%%%%%%%%jJ%Jj%
54806@%%%%j%%J%%j%%%%%%%%j%%%J%%%%%%%%J%%%j%%%J%J%j%%j%%%%%%%%%%J%%j%Jj%J%%J%j%%
54730@%J%%j%%%%%%J%j%%%%%J%Jj%%%%j%%%%%J%%%%J%%j%%%%%%J%%jJ%%%j%%%j%J%%%%%%%%%%j
54655@%%%%%%%%j%%J%%%%%%%%%%J%%%%%%jJ%j%%j%%J%%%J%%j%%%%%%%%%%%%%%%%%%%%J%%%%%%%
54580A%%%%%%%%j%j%%J%%%J%%%%%%j%%%j%J%J%%j%%%%%%%%%J%j%%%%%%%%%%%%%J%jJ%%%j%%J%%
54504AjJ%%%j%%%%%%%%%%%%%%%%%jJ%%%J%%j%%%%jJ%j%%%%%%%%%%%J%%%%%%%j%%%J%%%%%j%j%%
54429bJ%%%J%%Jj%%%j%J%%%j%Jj%%J%J%j%%%%%%%%%%%%%%%j%%%%Jj%%j%%J%%%%%J%j%%%%%%%%%
54354a%%%%J%%jJ%%%%%j%%%J%%%%%%%jJ%%%j%%%%%%%%%%%%%%%J%%%%j%J%%%%%%%%%%%J%%%%%j%
54278@j%j%JJ%j%%%%%%%%%%%%%%%J%%%%j%%%J%%%%%%%%%%%%%J%%%%j%%%%%Jj%%%%%%%%%%%%%%%
54203@%%%J%j%j%J%J%%j%j%%J%%%%%%%%%%%%%%%%%%j%J%J%j%%%jJ%%%%%%%j%%%j%%%%J%%%%J%j
54128a%%%jJ%%%%%%%%j%%J%%J%%j%J%%%%%%%%jJ%%%%%%%%%%%%%%j%%%%J%%J%%%j%%%%%%%%%%%%
54052@%%%%%j%J%%j%%Jj%%%%JJ%%%j%jJ%%%%%%%j%J%%%%%j%%%%%%%Jj%%jJ%%j%%%%%%J%j%J%%%
53977a%%Jj%%%%J%%%j%%%%J%%%%%jJ%%jJ%%%%%%J%%j%%%%%%%%%%%%%%%%%%%%J%%%%j%%J%j%%%J
53902A%%%%jJ%%%j%J%%%%%%%%%%%%%j%%%%%J%j%jJ%%%%%%%%%%%%%%%%j%%J%%%j%%%J%%%%%%j%%
53827a%J%J%j%%%%%%j%J%%%j%J%%%%J%j%%%%%%%%%%%%%%%%%%%j%%%J%%%%%Jj%%%%%%%J%%%%j%%
53751@%%%%j%J%%%%%%%Jj%%%%%%%j%%%%%%J%jJ%%%%%%%%%%%%J%%%%%%%%%%%%%%%%j%%%%J%%%%%
53676A%%j%%%%%J%%j%%%%%%j%%%%J%%J%j%%%%%%%%%%%%%%J%%%%j%%%%%%%%%%%jJ%%j%J%%%%%%%
53601@J%%%%j%%%%j%%%%J%%%%%%J%j%%%%%%%%%j%%J%%J%%%%%j%%j%%J%j%%%J%%%%%%%%%%%%%%%
53525@%%J%%j%%j%%%%%%%%%%%%%%J%j%J%%%%%%%%%%%%%%%%%J%j%%Jj%%%j%%J%%%%j%%%%%J%%%j
53450a%J%%J%%%%%%%%%%J%%j%jJ%j%%%%%J%%j%%%%%%%%%%%%%%%%%%%%%%J%%j%j%J%%%%%J%j%%%
53375@%%J%j%%JjJ%j%%%%%%J%j%j%%%J%%jJ%%%%jJ%%%%%%%%%%%Jj%%j%%%%%J%%%%%J%%%j%%%%J
53299A%%%%%%%%%%%%%%j%%%%%%%%%%J%j%%%%J%%%j%%%%jJ%%%%%%J%j%%%%j%%%J%%%j%%%%%%%%%
53224aJj%%%%%%%%%%%%j%%%J%%%%%J%%%%%%%%%%%%%%%%%%j%%Jj%%J%%%%%%%%%%%j%%%%%%J%%%%
53149@%J%%j%%%j%%J%%%%%%J%%%%j%%%J%%%j%j%J%%%%%j%%%%%%J%%%%%jJ%%j%J%%j%%%%J%%%%%
53073@%%%%j%J%%%%%%%%%%%%%%%%%%%%jJ%%%%%j%%%%J%%%%J%%%j%%%%%%%%j%%%J%%%%%%%%jJ%J
52998A%%%%%%%j%%%%%%%%%%%%%%j%%%%%J%%J%j%%%Jj%%%%%%J%jJ%%j%%%%%j%%%Jj%%J%%%%%%%J
52923A%j%%j%%%J%%%%%%Jj%%%%%%j%%%J%j%%%J%%%%%%%j%%%J%%%%%%%%%%%%%J%%%%j%%%%%%J%%
52847A%%%%%%j%%%%%%%%%%%%%%%%%%%%%%Jj%%J%%j%%%%%%J%%%%%%%j%J%%%%j%%%%%%%%%%%J%%%
52772A%j%%%J%%%%%j%%%%%%%%%%%%%J%%%j%jJ%%%%%%J%%j%Jj%%%%%%%%j%%%%J%%j%%%%J%%%%%%
52697@%%J%j%%%%%%%J%%j%J%%j%%%%%%%%%%%%%%%%%%%%%%%%J%%%%%j%%jJ%%%%%%%%%%%j%%%J%J
52621A%j%j%%%J%%%%%%%J%j%%%%%%%%%%%%%J%J%%jj%%%%%%j%%%%J%%%%j%%%J%%%J%j%%%%%%%%%
52546@%%%%%%%%%%%%%%J%jj%%jJ%J%j%%J%%%%%%j%J%%%%%Jj%j%%J%%Jj%%%%%%%%J%%%%%j%%%%j
52471a%%%%%J%%%%%%%%%%%%%%j%%%%%%%%%%%J%%%%J%j%%%%%%%%%%j%%%%J%%%%%%jJ%%%%%%%%J%
52395AJ%jj%jJ%%j%%%J%%%j%%J%%%%%%%J%%%%%%j%%%j%%J%%%%%%%J%%%%%%%%%Jj%%%%%%j%%%%%
52320@%%%J%j%%%%%%%%%%J%%%%%%%%%%%%j%%%J%%%%%j%%%%%J%%%%%j%%%%%%%%%%%J%%%%%%%%%%
52245A%j%%%%%%j%JJ%%j%%%j%J%j%%J%%%%%%%%%%%%%%%J%j%%%%%%%Jj%%j%%J%J%%j%%%%%J%%%%
52169A%%%%%jJ%%%%j%%%%%%%j%%%%%%%%%%J%%%%%%%%%%%%%%%%%%%j%%%%Jj%%%J%%%%%%%%%%%%J
52094A%j%j%J%%j%%j%J%%%%%%%%%%%%J%%jj%%%J%J%%jJ%j%%%J%%%%j%J%j%%J%%%%%jJ%%%%%%%%
52019@%%%%%%%%Jj%j%%%%J%%%%%%%%j%%%%%%%%%j%J%%%%%%%%%%%%%J%%%%%%%%%%%%%%%%%%%j%%
51943a%%%%%%%%J%%%%%Jj%%J%%%%j%%%%%%%%%%%%%%%%%%%%J%j%%%J%%%%%j%%%%J%j%%%%%%%%Jj
51868@j%%JJ%%jJj%J%%%%%%%%%j%%%J%%%%%%%%%%%%%%%%%%%%%%%j%j%J%%%%jJ%%J%%%%%%%%j%%
51793@%%%%%%%%%%%Jj%%%%%%%%%%%J%%%%j%%%J%%%%%%j%%%%J%%j%%%%%%Jj%%Jj%%J%%%%%j%%J%
51717A%j%%J%j%%%J%%%%%jJ%%%%%%%%%%%%%j%%%j%%%%%%%%%J%%j%%%%%%%%%%%%%%%%%%%%%%%%%
51642a%j%%%J%%%%%%%%%%%%%%%%%%%J%%j%%%%%%%%%%%%%J%%%j%%J%%%%%%%%%%%%%%%J%%j%%%%%
51567@J%jJ%j%%j%%%%%%J%%%%%%j%%J%Jj%J%j%%%%%%%%%%%j%%%jJJ%%%%%%jJ%%%Jj%Jj%%%%%%%
51492@%%J%%%%%%%j%%%%%jJ%J%j%%%%%J%%%%%j%%J%%j%J%%%%%%%j%%%%%J%%%%j%%%%%%%%%%%%%
51416@%J%j%j%%J%%j%J%J%j%%%%%J%%%j%%J%%%%%%%%%%j%%%J%j%%%jJ%%%%%%%%%J%j%%%%%%%%j
51341aJ%%%%J%%%j%J%%%j%%%%%%j%%%%%%%%%J%%%%%J%%%%j%%%%%%%j%%%%%J%%%%%j%%J%%%%%%%
51266@%%%%%%%%%%%%%%%%jJ%j%%J%%%jJ%%%%%%%%%%%j%J%j%%%%J%%%%%%%%%%j%%J%%%J%j%%%%%
51190@J%%%%j%%%%%%%%j%%J%%%%%%%%%%%%%%%%%%%J%jJ%%%j%J%%%%%%%%%%%j%J%%%j%J%%%%%j%
51115@%%%%j%%J%%%%J%%%%%j%%%j%J%%%%%%%%%%%%%%j%%J%%%%%j%J%%J%%%%%%%%%%%%%%%j%J%%
51040A%j%%%J%j%J%%j%%%%J%%j%%J%j%%j%%%J%%%j%%%%J%%%%%%%%Jj%%%%%%%%%%%%%%%%J%%%%%
50964A%%%%%j%%%%%%%%%%%%%jJ%%%J%j%%%j%%%%%%%%%%%%%j%J%%J%%%%%%%%%%%jJ%j%J%%%%j%%
50889a%%%%%%%%%%%%J%%%%%%%j%%%J%%%%%%%%%%Jj%j%%%%J%J%%j%%%%%%%%J%j%%j%%%%%%J%j%%
50814aJ%%%%%%Jj%%%J%jj%J%%%%%j%%%%%%%%%Jj%J%%%jJ%%%%%%%%%%%%%%jJ%%j%J%j%%%%%%j%%
50738bJ%J%%j%%%%%%%%%j%%%%%J%%%%%J%%jJ%%J%j%%%%%%%%%j%%%%%J%%%%%%%j%%J%%%%%%j%%%
50663aJ%%%%%%%%%j%%%%%%%%jJ%%%J%Jj%%%%J%%%%%%%%%%%JjJj%%%%%%%%%%%%%Jj%j%%%%%%%%%
50588@J%%%%%%%%%Jj%%%%%%%%%%%j%%%%%%%%%Jj%J%%j%j%%J%J%%%%%J%j%j%J%%j%%%J%%%%%%jJ
50512Aj%%%J%%j%%J%%%%j%%%%J%%%%%%%j%%%%%%%%J%%%%J%%j%%jJ%j%%%%%%%J%%%%%j%%%%%%%%
50437@J%%%%%jJ%%%%%%%%%j%%%%J%%j%%J%%%j%%%%%%%%%%%%%j%%%%%%%%J%%%j%%J%%%j%%%J%j%
50362a%%%%%%%%%%%%%%%J%%%j%%%%%%j%J%%%%%%%%%%%%%%%%%%%%%%J%%j%%jJ%jJ%%J%j%J%Jj%%
50286@jJ%%%%%%%%%%%%J%j%%%%%%%%%J%%j%%%%%%%%%%%j%%%J%J%%%jJ%j%%%%%%%j%J%J%j%%%%%
50211@%%%%%J%j%%%%%%%%%%%%%%%%j%J%%%Jj%%%%%%%%J%%%%j%J%%J%%%j%%%%%%%%J%j%%%%%%j%
50136@J%j%jJ%%%%%%%%%%%%%%%%%%%j%%%J%Jj%%J%%jj%%Jj%%%%j%%%%%%%%%%%%%%J%%%%J%%%j%
50060a%%j%%%Jj%%J%%%%j%%%%%%%%%JJj%%Jj%%%JJ%%%%%%%J%j%%%%%%%%j%%%%%J%%%%%%%%%J%%
49985B%%j%%J%%%j%%%%J%%%%j%%%%%j%%%j%%%%%%%%%%%Jj%%J%%%%%%%%%%%%%%J%%%%%j%%%%%j%
49910a%JJ%%%%%%%%J%j%%%j%%%j%J%j%J%%%%%%%%J%j%%%%%%%%%%%j%%%%%%%J%%J%j%%%%%%j%J%
49834@%%%%%%%%%j%%%J%%%J%%%%%%%J%%%j%%%j%%J%%%%%%%%j%%j%%J%J%j%%%J%%%j%%J%%j%%%%
49759@%%%%%%jJ%%j%%%J%%%%%%%%%j%%%%%%J%%%%J%%j%%%%J%j%%%%%%%%%%%jJ%%J%%%j%%%j%%%
49684a%J%%%%%%%%j%J%%%%%%%%%%j%%%J%%%%%%%%%%%jJ%%%%%%%jJ%%%%j%%%%%%%%%%J%%%%%%j%
49608a%%%%J%%%%j%%%%%%%%%%%%J%%%%%j%%%%%%%%%%%Jj%j%%%%%%%%%%Jj%%%%%J%%%JjJ%jj%%%
49533b%%%J%%J%j%%%%jJ%%%%%%%%%%%%%j%%J%%Jj%J%%%j%%%%%%%%J%%%%%%%j%J%J%%%Jj%%j%%%
49458@%J%%j%%%%J%%%%jJ%jJ%%%J%%%%%j%%j%%J%%%%%j%%%%%%J%%j%%J%%%%%%j%%J%%J%j%%%%%
49383A%j%%jJ%%%%%%%%%%%J%j%J%%j%%J%%%%%%j%%J%%%j%Jj%%J%%%%%j%%%%%%jJ%%%%J%j%%J%%
49307A%%%%%%%%%%%%%%%%%%%jJ%%%%%j%%%%J%j%%%%%%J%%j%%%%%%%%%%%%%%%%%%%%%j%%%%J%%j
49232a%%%%J%%%%j%J%Jj%j%%J%Jj%%%%%%j%%J%%%%Jj%%%j%%%%jJ%%%%jJ%%%J%%%%%%%%%%j%%j%
49157b%J%%%%%%%%%%%J%%%%%%%%%jJ%%%%%%%J%%%%j%%%%%%Jj%%%%%%J%%%%j%%%%%J%%%%%%%j%j
49081a%%J%%%%j%%%Jj%%J%Jj%j%%J%%%J%%j%%%%%%%%%%%j%%%%%J%%%%%j%%J%%%%%%%%j%J%%%%%
49006@%%%j%%%%%%%%%J%%j%%J%%%%%%%j%%J%%%%%J%%J%jj%%%j%J%J%jJ%%%%%j%jJ%%%%%%%%%%%
48931@J%J%%%%jj%%%%%%%%%%%J%j%Jj%j%%J%%%%%Jj%%j%%%%%j%%%J%%J%%%j%J%%%%%%j%J%%J%%
48855A%%j%j%J%%%J%j%%%J%%%%j%%%%%%J%%%%%j%Jj%%%%Jj%%%%%%%%%%%%%J%%j%%%%%%%%jJ%%J
48780A%%%j%J%%%%j%j%%J%J%j%%%%%%%%%%j%%%JJj%%%%%%%%%Jj%j%%%J%%%%%%j%%J%%%%%%%%%j
48705a%J%J%jj%%%%%%%%%%J%%%%%%j%%%Jj%J%%%jJ%%%Jj%%%%j%%J%%%J%j%%%%%%%%%%%J%J%%j%
48629A%%%j%%%%%%%%j%%J%%%%%%%%%%%%%j%%%%%%%%J%%%%%j%J%%%%%j%J%%%%%%J%%%%%j%%%%J%
48554Aj%Jjj%J%%j%%%%J%%%%J%j%Jj%%%%%%%%%%j%J%%%%%%%%%%j%%J%%%J%%%%%j%%%j%%J%%%%%
48479@%%%%%j%J%%%%%%%%%%j%%%%J%%%J%%%%J%j%%j%%j%%%J%%%%%%%%%%%j%%%J%%%%%%j%%%%%%
48403a%%%J%%%%%J%%%j%%%%%%%j%%%%%%J%%j%%%%%Jj%%%%J%%%%%J%%j%%%%%%%%%%j%JjJ%%%%%%
48328@%%%%%%%%%%%%%%%%%%jJ%%%%%Jj%J%%j%j%J%%%%%%%%%%J%j%%%%%%%%%%%%%%%J%%%%j%%%%
48253@J%%%j%%%%%j%%Jj%%J%%%%%%%%J%%%j%%%%%j%%J%J%%%%%%j%%%%Jj%%%%%%%%%%%%%%%%%%%
48177@%%%%%%%%%%%%%J%%%%%j%Jj%%%%%%%%J%%j%%%%%%J%%%%%j%%%J%%j%j%%%J%%jJ%%%J%j%%%
48102@j%J%Jj%%%j%%JJ%j%%j%%%%%%%%%%J%%%%%%%%%%%%%%%%%%%%%%%%%%%%%%%%%%%%%%J%%j%%
48027@%%%%%j%J%j%%%J%%J%%%%%j%%%%%%%%%j%%%J%%%%%%%%%%%%%%%%%%j%%J%%%j%%%%%J%%%%J
47951A%%j%j%%J%J%%j%%%%%%%%%%%%%%%%%J%j%%%%%%%j%J%%%%%%%%%%%%%%%%J%%j%j%%%%J%j%%
47876a%%%%%%J%%%%%%j%%J%%j%%%%%%J%%%jJ%%%%%%%%%%%%%%%%J%%j%jJj%%J%j%%%J%%j%%%%%J
47801@J%%%%j%J%j%%%%J%j%%%%J%%%j%%%%%%%%%%%j%j%J%%%%%%%j%J%%%%%%%%%%%%%%%%%Jj%J%
47725@j%J%j%J%%%%%%%%J%jJ%%%%%%%j%%%%%%%J%%%j%%%%%%%%%%%%%%%%%%%%%%%%%%%%%%J%%%%
47650A%j%%J%jj%J%%Jj%%Jj%%%J%%%j%%%J%%jJ%%%%%%%j%%J%%%J%%j%%%%%%%%%%%%%jJ%%%%%j%
47575@%%%%J%%%%%%j%%%%%%%%%%%%%%J%%%%%%j%j%J%J%%%%%%%%j%j%%%Jj%%%Jj%%J%%%%j%jJ%%
47499ajJ%%%%%%%%J%%j%%%%%%%%%%%%J%%%%%%%%%%%%%%%%J%j%%%j%%%J%%%%%%%%%jJ%%%%%%j%J
47424@%%%J%Jj%%Jj%%%%%J%j%%%%%%%%%%j%%J%%%j%J%%%j%%%%%%%%jJ%j%%J%%%J%j%%%%%%j%J%
47349@%%%%%%%%%%jJ%J%%j%%%%J%j%%%J%%%%%%%%%j%%%%%J%%%%%%%%%%%%j%%%J%%j%%j%J%%j%%
47274aJ%%%%%%j%%J%J%%jJj%%%%jJ%j%J%%%jJ%%jJ%%%%%%j%%%%%%%%%%%%%%J%%%%%j%J%%%%j%%
47198a%J%%j%%%%J%%%%%%%%%%%%%J%%j%%%%%J%%j%%%%%%%%%%J%%j%%%%%%j%%%%%%%J%%%%%%%%%
47123@%%%%%%%%%jJ%%%%%%%%J%j%%Jj%%%J%%%%%j%%JjJ%j%J%%%%%%j%%%%%%%%%%%%%%%j%%J%%%
47048@%%J%%j%jJ%%%j%J%%JjJ%%j%%%%%%jJ%%%J%%j%%%%j%JJ%%%j%%%%j%%J%%%%%%j%J%%%j%%%
46972a%%%%j%J%J%j%%%%%%%%%%J%%J%j%%%%%Jj%%%%%%%%J%%%%%%%%J%%j%%%j%%%%%%%J%j%%%%%
46897@%%%%%%%%%%%%%%J%%%%j%%%j%%%%%J%%J%%j%J%%j%J%%j%%J%%%%%%%%%j%J%%j%%J%%%jJ%%
46822A%%%%%%j%%%%J%%j%%%jJ%%%%%j%%%%%J%%%%%J%%j%%j%%%%%%%Jj%%J%%j%%%%%%%J%%%%%%%
46746@%%%%%%J%%%j%%%%%%%%%%%%J%jJ%%%%%%%%%%j%J%%%%%j%%%%jJ%%%%%%%%%j%%%%J%%jJ%%%
46671@%j%%%%%%%%%%%J%Jj%%%%%%%%%j%J%j%J%j%%%%%J%%%%%%j%J%%%jJ%j%%%%%%J%%%%Jj%%%%
46596@%%%%%%%%%%%%%%%%%%j%%%J%%%%%J%%%%%j%%%%%%J%%j%%%%%%%%%%%%%%%%%%%%%%%%%%%%%
46520@%J%%%jj%J%jJ%%%%%%%Jj%%%%%j%%%JJ%%%%%%%%%%%%%%j%J%%%%%%%%%%%jJ%%%%%%%%%j%%
46445@%%%%%%J%%%%%%J%j%%%%%%%%j%%%j%%J%%%%%%%%%%%%%%%%%%J%%%%%j%%%%%%%%%%%%%%j%%
46370a%%%%%J%%Jj%%%%%%%%%%%%%%%%%%%%%%%J%j%%%%%%J%j%%%%%%%%%%j%j%J%jJ%%%%J%%jJj%
46294a%%%J%%%%%%%%%%%%%%%%j%%J%%%J%j%J%%%%%%j%%%J%j%%%J%%%%%%%%%%%J%%%%jJj%%%%%%
46219A%%%%%%%j%%J%j%%jJ%%%J%%%j%J%%%%%%%j%%%%%%%%%%jJ%%%J%%%%%j%%%%%%%jJ%%%%j%%%
46144a%%%%J%J%j%%j%J%%%%%%%%%%%%%%%%%%j%%%%jJ%J%%%%J%%%j%%%%%%%%%%%J%%%j%%%J%%%%
46068A%%%%%%%%jj%J%jJ%jJ%%%%%%%jJ%j%%%%J%%j%%%%%%%%J%%%%%%%%%%%%%%%%%%%%%%j%%%%J
45993@%%%%%%%%%%%J%j%%%%%%%%%j%%%J%%%%%%%jJ%%%%%j%%%%%%J%j%J%%%%j%%%%%J%%%%%%%j%
45918a%%%%%%J%J%%j%%%jJ%%%%%%%%%%%%J%j%j%J%%%%j%%%J%%%%%J%%%j%j%J%%%%%j%J%%%%J%%
45842Aj%%%Jj%J%%%%%%%%j%%%J%j%%%%%%%%%jJ%%%%%%%%%%%%%J%%%j%%Jj%%%%%j%%J%%%%%%%%%
45767@%%%%%%%%j%J%%j%%J%%J%%%%%%%%%j%J%%%j%%%%%%%%%%%J%%%j%J%%j%%j%%%%J%%J%j%%J%
45692A%%%%%%j%%%%%%J%j%%%%%%%%%%%%%%%%%%%%J%j%%%%%%%j%%J%%%%%%%%%%%%j%%%%J%%%%%%
45616@%%%j%%%J%%%j%%J%%%%%%%%%%j%%j%%J%%J%%%%j%%%%%%J%%j%%J%%%%%%%%%%%%%%%%j%%J%
45541@%%%%J%%%%%%%%%%%%%%%%%%%%%j%%%%J%%%j%%%%J%jJ%%%%%%%jJ%j%%J%%%%%%%j%%%%%%%%
45466@J%%%%j%%%%%%%%%%%J%%%%%%J%%%%%J%%%j%%%%%j%%%%%%%J%%%%j%%%%%%%j%%%Jj%%%%%%%
45390@%J%%j%J%%%j%J%%%%%%%j%%%%%J%%%%j%%%%%%j%J%%%%%%%%%%%%%%%%%%%J%j%%%%j%%J%%%
45315@%%%%%%j%%J%J%%%%j%%%%%%jJ%%%%%%%%%%%%%%%%%%%%%%%%%%%%%%%%%%j%J%%%%%%j%%%%%
45240a%%%%%%j%%J%%%J%%%%%%%%%%%j%J%%jJ%J%%j%%%%%%%%%J%%%%%jJ%%%%%%%%%%%%%%%%%%%%
45165A%j%%%%%%%J%%j%%%%%%%J%%%jJ%j%%%%%%%%%%%%%%%%%%%%%%%%%%%%%%%%j%%J%%%%%%%%%%
45089@%%%%J%j%Jj%%J%j%%%%%%%%%%%%jJ%%%%%%%%j%%%%J%j%%j%%J%%%%jJ%%J%J%%%j%%%%%%%%
45014@%%%%%%%%%%J%jJ%%%%%%%j%%J%%%%j%%%%%%%%j%%%J%%j%jJ%%%%%%%%%%%%%J%%%%j%J%Jj%
44939@%%%%%%J%j%%%%j%%%%%%%J%J%%%%j%%J%%J%%j%%%%%%j%%%%%%%%%%%%%%%j%%%J%%%%%%%%%
44863@%%%%j%%J%%%%j%%J%%j%%%%%%%%%%J%%%%%%%%jJj%J%%%%%%%%J%%%Jj%%%j%jJ%%%J%%j%%%
44788@%%%%%%j%%%%%J%J%J%%j%%%%%%%%%%j%%%%%%%%%%j%%%%J%%%%%J%%jJ%%%%%%%%%%%%%%%%%
44713A%%J%%%j%%%%%%%jJ%Jj%j%%%%%%%%Jj%%%%%%%%%%%%%%%%%%%%%%%%J%%jJj%%%j%%Jj%%%%%
44637a%Jj%%J%%%%j%%%%%%%%%J%%%%%%%%J%%j%%J%%j%%%%J%jJ%%j%%%%%%%%%%%%%%j%%%%%%Jj%
44562a%%%%%%%J%%%%%%%%%j%J%%J%j%%%%%%%%J%%%j%%%J%%%%%%%%%%%%%%%%%%%%%%%%%J%%j%j%
44487@J%%%%%%j%j%%%J%%%j%%%%%%%%%j%J%%J%%%%%J%%%%%j%%%J%%j%%%J%%%%%%j%%%%%%%%j%%
44411a%J%%%%%%%%%%%%J%%%j%Jj%%J%%j%%%%%%%%%%J%%%%%%%j%%%%%J%%j%%%%%%%%j%J%j%%JjJ
44336@%%%%%%J%j%%%j%%%%J%%%%%%%%%%%%%%j%J%%%%%%%%%%%%%%%%%%J%%%%j%j%%%J%J%%j%%%j
44261a%%%J%Jj%%j%%J%%%%%j%J%%%%j%J%%%%jJ%%%%%%%%j%%J%%%J%%%j%%%Jjj%%%%j%J%%%%j%J
44185aJ%j%J%J%%%%%%%%j%%%J%%%%%%j%%%%%%%%%%%%%%J%%%%%%j%%%%J%%%%j%%%j%J%%%%%j%%%
44110a%%%J%%J%%j%%%%%%J%%%%j%j%J%%%%%%%%%%%%%%%%%%%%%%%%%%%j%%%J%%%%j%%%%J%%%%jJ
44035@%%j%Jj%J%j%%%%%%%%Jj%%%J%%%%%%%%%%%%%%J%%%%%%%%%%%%%j%%J%%%%%%%%%%%%%%j%%%
43959@%%J%%%j%%%%j%%J%%%%J%%J%%%%%%j%%%%J%j%%j%J%%J%%%%%%%jJj%j%%J%%%%%%j%%jJ%%%
43884@%%%%j%J%%%%%%%%%%J%%j%%J%%%j%J%J%j%Jj%j%%%%J%j%j%J%%%J%%j%%%%J%%%%%%%j%%J%
43809A%%%%%%j%%%J%%jJ%J%%%jJ%j%%%J%j%%J%%j%%%%%%%%%%%%j%%%%%%jJ%J%%%%%%%%%%%%%J%
43733B%%j%%%J%%%jj%%J%jJ%jj%J%%%j%%j%%J%%%%%%%J%%%%%%%%%%%%%%%%%%%%j%%%%%%J%%j%%
43658a%%%%%%%%J%%%%%%j%J%%%%j%%%%%%%%J%%%%%%%%J%%%J%j%jJ%%%%jj%Jj%J%%%%%%%%%%%%%
43583@%%%%%%j%J%j%J%%J%%j%%%%j%J%%%j%jJ%%%%%%%%%%%%%JJ%j%%jJ%%J%%j%%j%%%%%%%%%%j
43507b%%%%%%%%%%J%j%j%%J%%%%%J%%j%%%%%%%J%%%%%%j%%%%%J%%%J%%%%j%J%j%%%%%%%%%%%%%
43432ajJ%j%%%%%%%%%%%%%J%%%J%%%j%%%%%%%%%%%%%%%%%%%%%j%J%%J%j%%%%%%%%%j%%%%J%j%%
43357b%%J%%%%%J%j%%%%%%%%%%%%%%J%%%%%%%%%%J%%%j%%J%J%%%%%j%%%j%%J%%%%%%%%%%%%%J%
43281B%%%%j%%%J%j%j%%%%J%%%%%J%j%j%%%%%%J%%j%%J%J%j%j%J%j%jJ%%%J%%%%%%%j%%%%%%%%
43206@%JJ%j%j%%%%j%%%%%%%%%j%%%%%%%%%%Jj%J%J%%%jJ%%%%%%%%%%%j%J%%%%%%%%J%J%%%%j%
43131AJj%%J%%%j%%%%%%Jj%%%j%j%J%%%%%%%%%%%%%%j%%%%%J%%%j%%%Jj%J%Jj%%%j%%%%%%%%%%
43056aJ%%%%%%%%%%%%J%%j%%J%%%%%%%J%J%j%%%j%%%%%J%j%%j%%%J%%%%%%%j%%JJj%%%%%%j%%J
42980A%%j%%%%J%%%%%%%%%%%Jj%%%%j%%%%%%%%%%%%%%%%%%%%%%%%%%j%%%%%%J%J%%j%%%%%%%jJ
42905@%%%%%%%%j%%%j%J%%%%%J%%j%J%%%%J%%%%j%%%J%j%%J%%%%%%%%j%%J%%%j%JJ%%%jJ%%%%%
42830Bj%%%%%%j%%J%Jj%%%%%%%%%%%%j%%%J%%j%%%j%%j%J%%%%J%%%%%%%%%%%jJ%%%%%%%%%%%%j
42754a%%%%j%%%%%%J%%%%%%%J%%%%%%%%%%%%%J%j%%%%%%%%%Jj%%%%%j%%%J%%%%%%j%%%J%j%%%%
42679a%%%J%%%j%%%Jj%%%%J%%%%%J%j%j%%%%%J%%%%%%J%%%%%j%%%J%%%%%%%J%j%j%J%%%%%j%%%
42604@J%%j%%%J%%j%%%%%%%%%%%%Jj%jJ%%%%%%%%%j%%%%%%J%%%%%j%%%%J%%%%%%J%%%%%%jJjJ%
42528A%%%j%j%%%%%%%%%%J%%%%%%%%%%%%%%%%%%%j%j%%J%j%%%%%%%jJ%J%J%%%%%J%%%%%%%%%j%
42453@Jj%%%J%%%j%J%%%%%Jjj%%%%J%%%j%%%%%%j%%%J%%%j%%%%%%%%JjJ%%%%j%%%%%J%%%%%%%%
42378@%%jJ%J%%j%%%%%%%%%%%J%%%%%%%Jj%%%%JJ%j%%%%%%%%%J%%%%%%%%j%j%%%j%%%J%%%%%%%
42302A%%%%%j%%%%%Jj%%%%%%%%%j%%J%%%j%%%%Jj%%%JJ%%%%%%%j%%%J%%j%%%%j%%%j%J%%jJ%%%
42227a%j%Jj%%J%%j%J%%%jJ%%%J%%j%%%jJ%j%%%%%%%%%J%%%%%%%%%%%j%%JJ%%%%J%j%%%j%%%%J
42152@%%%%j%%%%%%%%%%%Jj%%%%%%J%%%%%%%%%%%%%%j%%%%%%%J%J%%%%%%%jJ%j%JjJ%%%%%%%%J
42076B%j%%%%%%j%%%%%J%%j%%%%%%%%%%%%%%%%%%%%%%%%%%%%%jJ%%j%%%j%J%%%%%%%%j%jJ%%J%
42001aJ%%j%%%%%%%%J%j%%%%%%jJ%%%J%%%%%%%%%%%j%%J%%%%%j%J%j%j%%%%J%j%%%J%%%%%Jj%J
41926@%%%%j%J%%%%%j%%%%%J%%%%%%%%%j%%J%%%%%%%%%%j%%%%%J%%j%J%%%j%%%%%%%%%%%%%%J%
41850@%Jj%j%Jj%%J%%%%J%%%%%%%%%jj%%J%%%%%%%j%%%%J%%%%%%%%J%jJ%j%%%%%%%%%j%J%j%%%
41775a%%%J%%%Jj%%%j%%%%J%%%J%%%j%%j%j%J%%%%%%%J%J%%j%J%%j%%%%%j%%J%%%Jj%%jj%%%%J
41700a%%%%%%%%%%%J%%j%j%%J%J%%%%%J%%%%%%%%%%j%%%%J%%%%%%%%%%%%%%%%%%%%%%%%%%%%%%
41624A%%%%%%j%%%%%%j%%%%Jj%%%%J%j%%%%%%J%%%%j%%%%%%%%%j%%%%%%%%j%%%%%%J%%%%%%%%%
41549b%%%%%%%%%j%%JJ%%%%%%%%%%%J%%%%j%J%Jj%J%j%%J%j%%%%%%%%%J%%%%J%jJ%j%J%j%j%%%
41474@J%%%%j%J%%%%%%%j%%%%%J%%j%%%%%%%J%%%%%%%%%%%j%%%%%%%j%%%%%%jJ%%%%J%j%%%%%%
41398aj%J%%%%%J%%j%%j%%%J%%J%jJj%%%%%%%j%%%%J%%%J%%%%%%%%%%j%J%Jj%%%%%%J%%%j%%J%
41323A%%%%%%%%%J%%j%%%%%%J%%j%%%%jJ%%j%%%%%%%%%%J%%%%Jj%j%J%%%j%%J%%%%j%jJ%%J%%%
41248A%%%%%J%J%%j%j%%%%%%%%%%jJ%%%j%%%%j%%%%%%%%%%%%%%J%%%%%%%%%%%%%%%j%%%J%%%%%
41172@J%%%%%j%J%%J%%j%J%%j%%j%%%%j%J%%%%%%%%J%%%%%%j%%%%%j%%%%%%%JJ%%%%%%%%%%j%%
41097@%J%j%%%%%%%j%%%%%%%%Jj%%%%%j%%%J%%%j%%JJJj%j%%%%%J%%%%%%%%%%%jJ%%j%%%%J%%%
41022@%j%J%%J%%%%%j%%%j%%J%%%%%%%%%%J%j%%%%%%j%%J%%%%%%%%%%%%%%%%%j%%%J%%Jj%%%j%
40946aJ%j%%%%j%%%%%%%%%%%%%j%%J%%J%%J%%%%%%J%%%j%%%%%%Jj%%%j%j%J%%%%%%%%%%%%%%%%
40871a%%%%%%%J%%%%%%%%%j%%%%%%%%j%j%%%J%%%%%%%J%J%J%j%JJ%%%%%%%%%%%%j%%%%%%%%%%%
40796A%%j%%%J%j%%%%%%J%J%j%j%%%%%j%J%%%%%%%%%%Jj%%%%%J%%jJ%%%%%j%%j%%%%%%%%%J%%%
40721@%jJ%%%%%%%%%J%%j%%j%%%%%%%%%%%%J%%%%%%%J%%jj%%%j%%%%J%%%%%%%%%%%%J%j%jJ%%j
40645b%%J%%J%%%%J%%j%%J%jJ%%j%J%%%%%%%%%%%%j%%jJ%J%j%%J%%J%%%%%%jj%J%%%j%%%%%%%%
40570@%%j%%%%%%%J%%%%%%%%%J%%%%%J%%%%%j%%%%%%%%%%%%%%%%%j%%%%%J%%%%%%j%J%%%%%%%%
40495A%%%%%%Jj%%j%%%%%%%%%jJ%%%%%%J%J%%j%j%%%%j%%%%%%%%%Jj%%%%%%%J%%%%%%%%%%%%%%
40419@%%J%j%%%%%%%%jJ%%%J%%%j%j%%%%J%%%%%%%%%j%%%%%%J%%%%%%Jj%%%j%%%%%%%J%%%J%%%
40344A%j%%%%%%%jJj%%%%%J%%%%%J%%j%J%jj%%%%%J%J%%%%%%%%j%J%%J%%%%%jj%%%J%j%%j%%J%
40269@%%%%J%j%%%%%%%%%%%j%%%Jj%%%%%%Jj%j%J%J%jJ%J%j%j%%%%%%J%J%%J%%j%%%%%%%%j%%J
40193A%%%%%%%j%%%%J%j%Jj%%%J%%%%%J%%%%%j%%%J%%%%%%%J%%%j%j%%%%%%%%J%%%%%%%%%%%%%
40118B%%%%%%%%j%%%%%%%%%%%%j%j%%J%%%jJ%J%%%%%%%%%%%Jj%%%%%J%%%%%%j%%%%%%%%%%%J%j
40043A%%%%%%%%%%j%%%%%%%%%%Jj%J%%%%%j%%Jj%%%%%%%%J%%%%j%jJj%%%%%%%%jJ%J%%%%%%%%%
39967@%Jj%%%j%%%J%%%%J%%j%%%%J%%j%%%%%J%j%%%%JJ%jj%%%jJ%%%%%%%%%%%%%%%%%%%%%j%j%
39892b%%%%%%%J%J%%%%%%%%J%%j%%%%%%J%J%%%%%%%j%%%%%%Jj%%%j%%Jj%J%%%j%%%%J%%%%%j%%
39817@%%%%%%J%j%%%Jj%%%J%%j%%J%%%jJ%%%%j%%%%jJ%j%%JjJ%Jj%%%%%%%%%%%%%J%%j%%%%%%%
39741@%%%j%%%J%%j%%%%%%%%%J%%%%%J%%%j%%j%%%%%%%%%%%%%J%%%%%%%%%jJ%%J%%j%j%J%%%%%
39666@%J%%%%jJ%%%%j%%%%%j%J%jJ%%%j%%%%%%%j%%J%%%%J%%%%%j%%%%%%%%%%J%%%%%%j%%%%J%
39591@j%%%%%%%J%Jj%%%%%%J%%%j%j%%Jj%%%%%%%%%%J%j%%%%%%%Jj%%%%%%%%%%%%%j%%J%%%%J%
39515@%%%%%%%%%J%%%%j%%%%%j%%%%J%j%%%%%%%%J%%%%%J%%j%j%%J%%%%J%Jj%%%j%%%%%j%%%%J
39440@%%J%%%%J%%j%J%%%%%j%%%J%%%%j%J%%J%%%%%%%%J%j%%%%%%%%%%%%%%%j%%j%%%%%J%%%j%
39365A%%j%%%%%%%%%%%%j%%%J%%%%%%%%%%%%%%J%%j%%%J%%jJ%%J%j%%%%%%%%%%%%%%%%%%%%%%%
39289A%%%%%%%Jj%%%%%%%j%%%J%%%%J%%%J%%%%%%%%%%%%%%%%%%J%%Jj%%%%J%%%%j%%J%%%%%j%%
39214D%%%j%%%j%%%%J%%jJ%%j%%J%j%%%%%%%%%%%%%%%%%%%%j%%J%%%%%%j%%%%%J%jJ%%J%%j%%%
39139B%%%%%%j%J%%%j%%%jj%%%j%J%Jj%J%%%%%%%j%%%%%j%%%%%J%%%%%%%%%%j%%%%J%%%%%%%J%
39063@%%%j%%%%%%%%%%j%%%%%%%%%%%%%%%J%j%%JJ%j%%%%%%%%%%%%Jj%%j%%%%%%%%JJ%Jj%%j%%
38988a%J%%%j%%%%%%%%J%%%%%%%%%%%%j%%j%%%%%%%%%%J%%%%j%J%%%%%%%%%%%J%%%%j%%%%%%j%
38913b%J%%J%%%%%%%%%jJj%%%%%%%j%%J%%%%%%%J%%%J%%j%%%%J%%j%%%%%%%%%%%%%j%%J%%%%j%
38837a%J%%%%%%%%%%j%%%j%%%J%%%%%%%%j%J%%j%J%%%%J%J%%%%jJj%%j%%J%%%%%%%%j%%%J%%J%
38762A%%%%%%%j%%%%J%%%%%%%%J%%%%%%%%%%%%%J%%%Jj%%J%%%J%%j%%%%%Jj%%%%%j%%%%%%%%j%
38687B%%%%j%%%%%%%%j%%j%%%%%%%%%%%%%jJ%%%%J%%%%j%%%%%J%J%j%J%%%JJ%%%%%%%%j%%%%%%
38612B%j%%J%J%%j%%%j%%%%j%%j%J%%%%%%%%j%J%J%%J%j%%j%%%%%J%%%%j%%%%J%J%%j%%%%%%%%
38536A%%j%%%J%%%%%%%%%%%j%%%jJ%%%%%%%%%%%%%%%%J%%j%%%%%%%%%%j%J%%%%jJJ%%%%%j%%%%
38461@%%%J%%j%%%%J%%%J%j%%J%%%%%%%%%%j%jJ%%%j%%%%%%%%%%%%%%%%%%%%%j%J%%%Jj%%%%%%
38386@Jj%%%%%%jJ%Jj%jJ%j%%%%%%%j%J%%%%%jJ%%%%%J%%%%%%%%%j%J%%%Jj%%%%%%%%%%%%%%J%
38310A%j%%%j%%%J%%%%%%%%%%%%%%%j%%%J%%%%%%%%%%%%%%j%%%%%%%J%%%%%%%%%j%%%%%%J%%%j
38235a%%J%%J%%j%%%J%%%%%%%%j%Jj%J%%%%j%j%%J%%%%%%J%%%%%j%J%j%%%%J%%j%%%%%%%%%%%%
38160@%%%%%%%%%%%%%%%%%%J%%%j%%%%%%%%%jJ%%%%%%%%%J%%j%%%j%%%%J%%%%%%%%%j%%%%%%%J
38084@%%%%%%%%%%%%%%%%%%%%%j%%%J%%%%j%%%%%%%%%%J%%%j%%%%%%J%j%%%%%%%%%%%%%%Jj%%%
38009a%%%%%%J%%j%%%%j%J%%J%%j%%%%%%%%%J%%%%%J%%%j%%J%%%%%%%j%%J%%%%%j%%%%%%%%%%J
37934A%%%%%%%%%%j%%%%%%jJ%%%%%J%j%J%%%%%%%%%%%%%%%%%%%%%%j%%%%%%jJ%j%%%jJ%%%%%%%
37858a%%J%J%%%%%%%%%%j%%%%J%j%%%%%%%%%%%%%%%%%%%%%%J%jJ%%%%j%%J%%j%%%J%%J%j%%%%%
37783A%J%%j%J%%j%%J%%%%%%%%%%%j%%%%%%J%%%j%%%%%%%%j%%%%%%%%%%J%%%%J%Jjj%J%%jJ%j%
37708Aj%%J%j%%%J%%%%%%j%%%J%%j%%%%%%%%%%%%%%%J%j%j%%%%%%J%%%%%%%%%%J%j%J%%%j%J%%
37632A%%%%%%%%%J%j%jJJj%%j%J%j%J%%%%%%%%%j%%%%j%%%%%%%J%jJ%j%%%J%%%%j%%%%%%j%%J%
37557a%%%%%j%%%%J%Jj%%%%%%Jj%%%J%%%%%%%%%%%%%%%%%%%%%%%J%%%%j%%%%%J%%J%j%%%J%%%%
37482B%%%%%j%%%%j%J%%j%%%%J%%j%%%%J%%%%J%Jj%%j%%j%%%J%%%%%%%%%%%j%%%%%%J%%j%%%%%
37406@%%%j%%%%%%%jJ%J%%%%%%%%%%j%%J%Jj%%%j%%%J%%%%%%%j%%%J%%J%%%%%J%%j%%%%j%%%%J
37331A%J%%j%jJjJ%%%%%%j%%%%J%%%%%%%%%%%%%%%%%%%%%%J%%%J%%j%j%%j%J%%%%%jJ%j%Jj%%%
37256@%J%%j%%%%%%%%%%%%%j%%J%%%%%%%j%J%%%%J%%%j%%%%%j%%J%%%%%%%%%%J%%j%%J%%j%%J%
37180Aj%J%%%%%j%J%%%%%%%%%jJ%%%%%%%%%%%j%%%%%%%%%%%%%%%%%J%%%%%%%%j%%%%%%%%%%%%%
37105@%%%%%%%%%%%%%%%%J%%%%%J%%%j%%%%%%%J%j%%%%%%%%%%%%%%%J%%%%%%%%j%%%Jj%%%%%%%
37030A%%%%%%%jJ%%Jj%%j%%%%%j%%%%%%%%%%%J%%%%%%%%j%%%%%%%%%%J%%%Jj%%Jj%%%%%j%J%%%
36954@%%%%%%%%%%%%%j%%%%%%%Jj%%J%%%jJ%%%%%%%%%J%j%%%%%%%%%j%%%%%J%j%%%%%%%%%j%%J
36879a%%%%%%%%%%%%%%%%%%%%%%J%j%%%%J%%%%%%%%%%J%%j%%%%%%J%%%j%%J%%%%%%J%%%%%%%%%
36804B%%%%%%%%%%%%%%%%%%j%J%j%Jj%%%%%j%J%%%%j%J%%%%J%%j%j%J%j%%%%%%%%%%j%%J%%%%%
36728@%%%%%%J%%j%%j%J%%%%%%%%%j%%%%%J%%%%%%%%%%J%%%%%%%%%%%%%%%%%%%%%%%%J%%%%%%%
36653BJ%%%%j%J%j%%%%%%%j%%%%j%%%%%j%%J%j%%%%%%%J%%j%%%%%%%J%%%j%%%%%%%%j%J%%%%%j
36578b%%J%%%%%%%jJ%J%%%%%j%J%%J%j%%j%%J%%j%j%%JJ%%%%%%%jJj%%Jj%%%%%J%%%%%%%%%%Jj
36503@%%%%%Jj%%%%J%%%Jj%jJ%jJj%%%%%J%%%%%%%j%%J%%%%j%j%J%%%%%%%J%%%%%%%%%j%%%%%%
36427@%%%J%j%J%%%jj%%J%%%%j%%%J%j%%%%J%%%%%%%j%%%J%%%%jJ%jJ%%%%%%%%%%%%%%J%j%%%J
36352A%%j%%%%%%%%%%J%%%%%j%%%%%%j%%%%%%%%J%j%J%%%%%%J%%%%j%%%%%%%%J%jj%%J%%%%%%j
36277a%%J%%%%%%%%%%J%%jJ%%j%%%%j%%%J%%%J%%j%%%%%J%%j%%%%J%j%J%j%%%%%%%%%%%%%%%%%
36201@%%%%j%%%%%%%%%J%%%%%%%%%%%%%%%%jJJ%j%%%%%%%%%%%%%%%%%%%%%%%%%%%%J%%%j%%%%J
36126A%%%j%%%%%%%J%%%J%%%%jj%j%%%%%%J%%%%%%J%%%%%%%%%%%j%%%%%%j%%J%%%%j%%%%%%J%j
36051a%%%%J%%%%j%%j%%%J%%%%j%J%%%%%%%J%%%%%jJ%%%%%%%j%J%%%%%j%%%%%%%%%%%%jJ%%J%%
35975@%j%%%J%%%j%%%%J%%%%%%%%%%%%%%%%%%jJ%%j%%%J%J%j%%%%%%%%%%%%%%%%%%%%%%%%%%%%
35900@%%%%%%%%J%%%j%%%%Jj%%%%%%%%%%%%%%%%%%%%J%%%%%J%%%%%j%%%%Jj%%%%%%%jJ%%%%%%%
35825A%j%J%%%%%j%%%%%%%%%%%J%%Jj%%J%%%%j%Jj%%%%%%%%%j%%%j%%J%%%%%%%%%J%%J%jj%%J%
35749A%%%%%%%%%%%j%J%%jJ%%%%%%j%%%%%%Jj%%%%%j%J%%%%%J%%%%%J%%%%j%J%%%%%j%%%%Jj%%
35674A%%%j%%%%%%%%%j%%%J%%j%J%%%%%%%%%%%j%%%%%J%j%%J%%%%%%%%%%%%%%%%%%%%%%%%%%%%
35599@%%%%%%J%j%%jJ%J%%%%%%J%%%%%j%%%%J%%%%%%%%jj%%J%%j%%%%JJ%%j%%%%%%%%J%j%%%%%
35523A%%%%j%%%%J%%%%%jJ%%J%J%%%%%j%%%j%%%%%%%%%%%%%%%%%j%J%%%%j%%%J%%%%j%J%%jJ%%
35448A%%%%%%%J%%j%%%Jj%%%%%j%%J%%%j%%%%%%%%%%%%%J%%j%%%%j%%J%%%%%%%%%jJ%%%%J%%%%
35373A%%%%%jj%%%%%%%%%j%JJ%%J%%%%%%J%j%%%j%%%%j%%J%%%%J%%%%%%%%%%jJ%%%%j%%%j%%%%
35297aJj%%%%%%j%%%%%%%%%%%%%%J%%%%%j%%%%%%%%%J%%Jj%%%%%%j%%%%%%j%%J%J%%%%%%jJj%%
35222b%%%%%J%%%j%%%%%%%J%%J%%%%%%%%%%%%j%J%%%%%%%%%%%%%%%%%%%%%j%%%%%%%%%J%%j%%%
35147a%J%%%%%%%%%j%%%%%%%jJ%%%%%J%J%%%%%%J%j%%J%jj%%%%%%%%J%%%%%%%%%%%%%%%%%%J%%
35071B%%%%%%j%J%%%%%%%j%JJ%%j%%%%%%J%%%%%%%%%%%%%%%%%%%%%%J%j%%j%%%%j%%%%J%j%%J%
34996BjJ%%%%jj%J%%J%j%%%%%%%%%%%%%%%J%j%%jJ%j%J%%%%%j%J%%%%%%%%j%%J%%J%%%%Jj%%%j
34921A%%%%%j%%%%J%J%j%%%%%%%%%%%%j%%%%%%%%%%%%%%%%%%Jj%Jj%%%%%%J%Jj%%%%j%%%%%J%j
34845@%%%%%%J%j%%jJ%%%j%%%%%%%%%J%j%J%%J%%%%%j%J%%%%%%%J%%%j%%j%%%%%%%%%%%%%J%%j
34770@%%%j%%%%%%%%%%J%%j%%%J%%%%%j%J%%%j%Jj%%%%%%%%%J%%j%%%%J%%j%%%%%%%%J%%%%%%%
34695@%%%%j%%%%%%%%%%%%J%%%%jJ%j%%j%%%J%%%%%%%%%%%%%J%j%%%%jJ%%%%%J%J%%J%%%%%%%j
34619A%%%J%j%j%%%J%%%%%%%%j%%j%J%j%%%%%%%%%%%%%%%%%J%%j%%%%%%%%%%%%%%%%%J%j%J%%%
34544@%J%%j%%%%%%%%%%j%%J%%%%J%%%j%%J%%%%%j%%%%%%%Jj%j%%%%%J%%%%%%J%%%%%%%%%%j%%
34469@%%%J%%%%%%%%j%%J%%%%J%%%%j%J%j%%%%j%%%%%%%%%J%%%%j%%%j%%J%%%J%%%%%j%%%%%%j
34394aJj%%%J%%%%%%%j%%%%%J%%%j%%%%%%%%%j%%%%J%%%%%%J%%%%j%%J%%%%%j%%%%%%JjJ%j%jJ
34318a%%j%%%%%%%%%%%Jj%%%%%J%%J%%%%j%%%%%%%%%%J%j%%J%%%%%%J%%%%j%j%%J%%%%%%Jj%%%
34243@%%%%%%%%%J%%%%j%%%%%%%%%JjJ%Jj%%%%%%%%%j%%%%J%j%%%J%%j%%J%jj%J%%%%%j%%%J%%
34168@%%%J%%%%%%%j%%%%%%%J%%j%%%%%%%%%%%%jJJ%%%%%%%j%%%%%%%J%%%%%%%%%j%%J%%j%%%%
34092@%%J%%%%%%%%%%%%%%j%%J%j%j%%%%%%%%J%%j%%%%%%%%%%%%%%%%%%%%%%j%J%j%%%%J%%%%%
34017a%%%%J%%%%jJ%%%j%%J%%j%J%%%%J%%J%jj%%%%j%J%%Jj%J%j%%j%%%J%%j%J%%%%%%%%%J%%%
33942A%%%%%J%%%%%J%%j%%%%%%%%jJ%%j%%%J%%%%%%jj%%J%j%JJ%%%j%%Jj%%j%%J%Jj%%%%%j%%J
33866A%Jj%%%jj%%%J%J%jJ%%Jj%%%%%jj%%%%%%%%%%%J%%j%%JJ%J%j%%%%%J%%%%%%j%j%%J%%%%%
33791A%%j%Jj%%%%%%j%%%%j%%%%%jJ%j%JJ%%%%J%%j%%%%%%J%j%%%J%%%%j%%J%%J%J%%%%j%J%%%
33716B%jJ%j%%%%%%%%%%%%%J%%J%%jj%%JJ%%j%j%JJ%%%%%Jj%j%%%%%%%%%%J%%j%j%%%%%%%%%%%
33640AJj%%%%%%%%%j%j%%j%J%%%%J%%J%%%J%%%%%j%j%j%%%J%%%J%%jJ%%%%%%%%%%%%%J%%j%%%j
33565@%J%%%%%%%%%%JJ%%jj%%Jj%j%%J%j%j%%%%%%J%j%J%%J%%%Jjj%J%%j%%j%J%%%j%J%%%%j%%
33490a%j%%J%j%%jJ%J%%%%%%%%%%J%%jJj%jJ%%%%%%%J%j%%%%%%%j%%J%%%%Jj%%%%%%%%%jJ%%%%
33414aj%%%%%J%%J%%%%j%J%%%%%%%%j%%%J%%j%%%%%%%%%%%%%%%%%%j%J%Jjj%J%%j%%%%%%%J%%j
33339b%%J%%%j%%J%J%%%%%jJ%j%%%%%%jj%%%J%%%Jj%J%J%Jj%%%%%%jJJ%j%%%J%%j%jj%%J%j%%%
33264b%j%%%J%J%%j%J%J%%JJ%%%%%%j%%%j%J%jj%%%%%%%%J%j%j%%%%%%j%%jJ%%%%%%%%%%J%Jj%
33188b%%%%%J%%%%j%Jj%%J%%%%%%%%%%%%%jJ%%%%Jj%%%%%%%j%%%j%%%%%%J%%%%%JJJJ%%%Jj%%%
33113Bj%%%%%%jj%j%%j%j%%%%JJJJJJJJJ%%%%%%j%%J%j%j%%%jj%%%J%%j%%%J%%%j%%%%%J%%%%J
33038C%%%%%%%%J%J%j%%J%jJ%j%j%%%j%%%%jJ%%%%%j%%%%%j%%j%JJ%J%%j%%%%%J%%j%%j%%%%%%
32962@%%%%%%%%%%jJ%%%%j%j%%J%%j%%%J%%%%%%%%J%%%%%%%%j%%%%%%%%%J%%%%%%%%%%j%%J%J%
32887A%%j%%%%%%%%%%%J%jJ%%%jJ%%%%%j%%%J%%%%%%%%%%j%J%%%J%%%%%%%%jJ%%%%%%%%jJ%j%J
32812BJ%j%%%%%%%J%j%%%%%%%%%j%%J%j%%%%%jJ%jjJ%%%%%%j%%J%j%%%%%%%%%%%J%%%J%%%%%%%
32736A%%%%jJ%%%j%%%J%%%jjJJ%%%%j%j%%%%%%%J%%%%J%J%j%J%%%%%j%%%%%%%%%%%%%%%%%%%%%
32661Aj%%j%%%%J%%jJ%J%%j%%%%%%%%%%J%jjJ%J%%%J%jJ%%%%%j%%%%%%%J%%%j%%%%j%J%%%%%%%
32586AJ%%%%j%%j%%%J%%%%J%j%jj%J%%%J%j%J%J%%%%%jJ%%j%%%J%%%%%%%j%%%Jj%jJ%J%%j%%%%
32510A%j%j%%J%%%j%%j%J%%%%%%%%%%%%%%j%%%%%%%J%j%%%J%j%%J%%J%%%J%j%J%J%%%%%%%%j%%
32435A%%%j%J%%%%%%%%%%j%%J%%j%%%J%%%%j%%%j%%%J%%%%J%%%%%%%%%%J%jJ%%%%%J%%j%%%%%%
32360B%%%%%%%%%%%%%%j%jjJJj%%%%%%%%%%jJ%%jJ%%%%j%J%%%%%J%%%%J%%jj%%J%%j%Jj%%%J%j
32284@%%%%%%J%J%%%%%%%%%%%%%J%%%j%%j%%J%%%%%%%j%%%J%%J%j%%%j%%j%%%j%J%%J%%%%j%J%
32209A%%%J%j%J%%%J%%%%%%%jJ%j%%%%%%%%%%%%%J%j%%%J%%%%%%%%%%%%%%%%j%J%%J%%%%%%%%j
32134C%%%%%j%%%J%%jj%%%%%J%%Jj%J%j%J%%jj%%JJ%j%%%%%%%%%%%%%%%%J%%%%%j%j%%%%%%%%J
32059Bj%%%%%%%%%J%%%j%%J%%%%%%J%%j%%%j%%%%J%j%%%%%%%%j%%%%J%J%%%j%j%%%%%%J%%j%%J
31983A%%%%%%%JJ%%%%%%J%%%J%JJ%j%j%%j%%%%%%j%%%%%j%J%j%%%%%%J%%%%j%%J%%J%%j%j%J%%
31908C%%%%%%%%j%%%%%%%%%%%%jJj%%j%%%%%%J%%%%J%%%%%%%%%%J%J%%%%%%%%j%j%%%%%%%%j%%
31833A%%j%%%%%%%%%j%J%%%%%%%%Jj%Jj%%%j%J%%%%%%%J%%%%%%%J%%%%%j%%%%%%%%%%%%%%j%%%
31757@%%%%%Jj%J%j%Jj%%%%%Jj%J%J%%%%%%j%%J%%J%J%%%%%%%%%%j%%%%%j%%%%J%Jj%%%%%j%%%
31682B%%%J%%jJj%%%%%%J%%%%%J%%j%%j%j%%%%%J%J%%%j%%%%%%JJ%%%%%%%%%%%%j%%%JJ%%j%%J
31607E%%%%%%%%%%%%%J%jjJ%%%J%%%j%%J%jj%%%%%J%%%%%%%%%%%%%%j%%%%%J%%%%%%%%%jJ%%%%
31531Ej%%%J%%%%%%j%%%%J%j%%%%%%J%%%%%j%%%%J%%%%%J%%j%%%%%%%%%%J%%j%%J%%%%j%jj%%%
31456C%%%%%%%%%J%j%%%j%%%Jj%%%jJ%%Jj%J%%%j%%%%%%%j%%J%%%j%Jj%J%%%%%%%jJ%J%%%%%j%
31381B%%%%%J%J%%%%%j%j%jj%Jj%%%%%%J%%%J%%%J%%%%%%%J%%%%%%%%%%%%%%%%j%%%J%%%%%%%%
31305D%%J%j%j%%%J%Jj%%J%j%J%%%%%J%%j%%J%%j%j%%%j%J%%%%%j%%%%%%%%%j%%%%%%%Jj%%%J%
31230C%%%%%%%%%JJ%j%%%jJ%J%%%J%j%%%j%%j%%%%J%%%%%%%%j%%%J%%%%%%Jj%%%%%%%jJ%%%%%%
31155D%%%%%J%%%%j%J%j%%%%%J%jJ%%J%j%%%%%J%J%j%J%J%%%%J%JJJJJJjjkjj%%%j%%%%J%%%%%
31079I%%kjj%j%J%JJ%J%%%JJ%%%%j%%j%jj%j%%%%%J%J%%%J%%%%J%%%j%%%%%jJ%jJ%j%j%%J%%J%
31004H%%J%%%%%J%%j%jjjj%%%jJ%%JJ%%%J%%%%jj%%%%%%%%%%J%%jJ%%j%J%%%jjj%j%%J%J%j%%j
30929C%J%%%%%Jj%%%%%J%J%jJ%%J%%%%%%%%%Jj%%%%%J%J%%%%%%J%%%%%%%%%%%%%%j%%j%J%%%%%
30853I%%j%%%%%%%Jj%J%j%%%%%%%j%%%%%%j%%%%%%%%%%%%%%%%j%J%%%j%%j%%J%%%J%%%%%%j%%%
30778E%%%%j%%J%%%%%%%%jJ%%%%%%%%%J%%%j%%%J%%%%%J%%%J%%%%%j%J%%%%j%%%%%J%j%j%%%J%
30703GjJ%%J%%%j%%%%%%j%J%%%%%%%j%%%J%%%%%%%%%%%%%%%j%%%j%%%%%%%%%%J%%%%%%j%%%J%%
30627F%%%%%%J%%%J%J%%j%%j%%%%%Jj%%%J%%%%%%%%%%j%%%J%%J%j%%%%%%j%%%%%%%%%%%%%%%%J
30552H%%%%%%%%%j%J%%%%%%%%%%%%%%j%%j%%%J%%%J%%%%%%%J%j%%%%%%%%%%%J%%%%%%%%%%%%%%
30477I%%%%%%%%%%%%%%%j%%%Jj%%%%%%%%J%j%%%j%%%j%%%%%%%%J%j%j%%j%%%%%%%%%J%J%%%%j%
30401E%J%%%%%j%%%%%J%%%%%%%%J%%j%%%%%%%%%%%%%%%%j%%%J%%%%%%%%%%%J%%J%%%%%%jJ%%%%
30326H%%%%%%%%%%J%%jj%J%j%j%j%%%%%%%%J%%%%%%%J%%%%%%JjJ%%j%%%%%%%J%%%%%J%j%%%%%%
30251H%%%%J%%%%%%%%%%%%%%%%%%%j%%%%%%%%%%%j%%J%%%%%%%%%j%%%%%%%%%%%%%%%j%%%%%%%J
30175G%j%%%%%j%%%%J%%%%%%%%j%%%%%%%%%%%%%%%%%%%%%%%%%%%%%%J%%J%%%%%%%%%%%j%JjJ%%
30100G%%%%%j%%%%%J%%%%%j%%J%%%%%%%j%%%%J%%%%J%j%J%%%%%J%%%j%%%%%J%j%%%%%%%%%%%%%
30025H%%%%%%j%%%j%%%%%%%j%J%%j%%%Jj%J%%%%%%%J%j%%%%J%%J%J%J%%J%J%%J%J%%%%%jjjj%j
29950Ijj%j%%%%%%%J%%%%%j%%%j%%%%%%%%%%%j%%%%%J%%%%%%%J%%J%j%j%%J%J%%%J%%%%j%%%%%
29874G%%%J%%%%%%%j%%J%j%%J%%%j%J%%%%j%%%j%J%%%%%%%j%%%%%%%%%J%j%%%J%%j%%%%%%%%%%
29799FJ%%%%%%%%%%%%%J%j%%%%J%%%%j%%%%%%%%%%%%%%%%%%%%%%%%%%j%%J%%J%%%JjJ%%%%J%jJ
29724A0%j%j%%J%%%%j%%%%%%%j%%%%%%%%%%%%jJ%%%%%%J%%%J%%J%%J%%%%%%%%%%j%%J%%j%%%%J
29649A1%%%J%%%%%j%%%%%%%%%%j%%%%j%%jjjjj%%%%JJ%J%J%J%%%%%%%%j%%j%%%%j%%j%%j%j%jj
29575A%j%%%J%%%%%%%J%%%%%%%%%%%%%%%j%%%%%J%%%%%%%%%%j%%%J%j%%%J%%%%j%%%J%%%%%%%J
29500C%%j%%%%J%%%j%%%%%%J%%%%%%J%%%%J%%%%%%%%jJ%j%%%%%%%J%%%%%%J%%j%%%%%%%%%J%%%
29424F%%%%%%%%%%%%%%%j%%%%%%%%%%%jJ%%%%J%J%%%%j%%%j%%%%%%%%jJ%%%%%J%%J%%%%%%%%%J
29349H%%%j%%%j%%%%j%%%%%%%%%%%%%%%%%j%%%%%%%J%%j%%%%%%%J%%%J%J%J%%%%J%%%%%%%%%%%
29274I%J%%%%%%%j%%%%%j%J%%%%%%%%j%%%%%j%%j%%%%%%j%%%%%J%%%%%J%%%%%%J%%%%%%%%%%%%
29198H%%%j%%%%J%%%%%j%J%%j%J%j%%%J%%j%%%%%%%%%%%%%%%j%%%%%%%%%%%%%%%%%J%j%%%%%%%
29123F%%%%%%%%%%%%%j%%%%jJ%%%%%%%%%%%Jj%%J%%J%%%%%%j%%%%%%%%%%%%%%%%%J%%%%%j%%%%
29048F%%%%%%%%%%%J%%%%%%%%%j%%%%%%%%%%%j%J%j%%%%%%%%jJ%%%%%%%J%%%%%%%%%%%%%%%%%%
28972F%%%%%%%%%%%%%%%%%%%%%%%%%%%%%%%j%%%%%%%j%%J%j%%%%%%%%%%%%%%%%%%%%%%%%%%%%%
28897D%%%%%%%%%%%%%%%%jJ%%%%J%%j%%%%J%%%%%%%%%%%%%%%%%%%%%%%%%%%%%%%%%%%%%%%%%%%
28822E%%%%%%%j%%%%%J%%%%j%%%%%%%%%%%%%%%%%J%%%%%j%%%J%%j%%J%%%%%%%%%%%%%%%%%%%%%
28746E%%%%%%%%%%%%%%%%%%%%%%%j%%%%%%%%%%%%%Jj%%J%%j%%J%%%%%%%%%%%%%j%%%%Jj%J%%%j
28671D%J%%%%%%%%%j%%%%%%jJJJ%%%%%%%%%j%%%%%%j%%%%%j%%%j%%%j%%%J%%%j%%J%%%%%%%%%%
28596B%%%%%%%%%%%%%%%%%%%%J%%%%j%Jj%%%%%%%%%%%J%%j%%%%J%j%%%%%%%%%%%%%%%%%%%%%%%
28520B%%%%%%%%%%%%%%%J%%%%%%%%%%%%%%%%%%%%%%%%%%%%%%%%%%%%%%%%%%%%%%%%%%%%%%%%%%
28445C%%%%j%%J%%%%j%%%%J%j%%%J%%%%%%j%Jj%%%%%%%%%%%%%%%%%%%%%%%%%%%%%%%%%%%%%%%%
28370B%%%%%%%%%%%%%%%%%%%%%%%%%%%%%%%%%%%%%%%%%%%%%%%%%%%J%%j%J%%j%%%J%%%%%j%%%J
28294C%%j%%Jj%%%%%J%%%%%%%j%%%%%Jj%%%%%%J%%%%%%%%%%%%%%%%%%%%%%%%%%%%%j%%%%%%%%%
28219B%%%%%%%%%%%%%%%%%%%%%%%%%%%%%%%%%%%%%%%%%j%%%%%J%%%%%%%%%%%%%%%%%%%%%%%%%%
28144B%%%%%%%%%%%%%%%%%%%%%%%%%%%%%%%%%%%%%j%%%%%%%%%%%%%%%%%%%%%%%%%%%%%%%%%%%%
28069A%%%%%%%%%%%%%%%%%%%%%%%%%j%%%%%%%%%%%%%%%%%J%j%%%%%J%%%%%%%%%%%%%%%%%%%%%%
27993A%%%%%%%%%%%%%%%%%%%j%%%%%%%%%%%%%%%%%J%J%%%%%%%%%%%%%j%%%%%%%%%%%%%%%%%%%%
27918A%%%%%%%%%%%%%%%%%%%%%%%%%%j%%%%%%%%%%%%%%%%%%%%%%%%%%%%%%%%%%%%%%%%%%%%%%%
27843@%%%%%%%%%%%%%%%%%%%%%%%%%%%%%%%%%j%%%J%%%%%%%%%%%%%%%%%j%%%%%%%%%%%%%%%%%%
27767a%%%%%%%%%%%%%%%%%%%%%%%%%%%%%%J%%%%%%%%%%%%%j%%%Jj%%%%%%%%%%%%%%%%%%%%%%%%
27692a%%%%%%%%%%%%%%%%%%%%%%%%%%%%%%%%%%%%%%%%%%%%%%%%%%%%%%%%%%%%%%%%%%%%%%%%%%
27617a%%%%%%%%%%%%%%%%%%%%%%%%%%%%%%%%%%%%%%%%%%%%%%%%%%%%%%%%%%%%%%%%%%%%%%%%%%
27541a%%%%%%%%%%%%%%%%%%%%%%%%%%%%%%%%%%%%%%%%%%%%%%%%%%%%%%%%%%%%%%%%%%%%%%%%%%
27466a%%%%%%%%%%%%%%%%%%%%%%%%%%%%j%%%%%%%%%%%%%%%%%%%%%%%%%%%%%%%%%%%%%%%%%%%%%
27391b%%%%%%%%%J%%%%%%%%%%%%%%%%%%%%%%%%%%%%%%%%%%%%%%%%%%%%%%%%%%%%%%%%%%%%%%%%
27315a%%%%%%%%J%%%%%%%%%%%J%%%%%%%%%%%j%%%%%J%%%%%%%%%%%%%%%%%%%%%%%%%%J%%%%%%%%
27240B%%%%%J%%%%%%%%%%%%J%%%%%%%%%%%%%J%%%%%%%%%%j%%%%%%%%%%%%%%%%%%%%%%%%%%%%%%
27165D%%%%%%%%%%%%%%%%%%%%j%%%%%%%%%%%%j%%%%%%%%%%%%%%%%%%%%%%J%%%%%%%%%%%%%j%%%
27089B%%%%%%%%%%%%j%%%%%%%%%%%j%%%%%%%%%%%%%%%%%%%%%%%%%%%%%%%%%%%%%%%%%%%%%%%%J
27014A%%%%%%%%%%%%%%%%J%%J%%J%J%J%J%%JJ%J%JJJ%JJJJJJJKJKJKKJKJJ%%jlmmmlmmlljjjjj
26939cj%jjj%j%%j%%j%%%%%J%%%J%%%J%%%%%%%J%%%%%%%%%%%%%%%%%J%%%%%%%%%J%%%%%%%%%%%
26863d%%%%%%%%%J%%%%%%%%%%%%%%%%%j%%%%%%j%%%%%%%%%%%%J%%%%%%%%%%%%J%%%%%%J%%%%%%
26788b%%%%J%%%%%%%%%%%%%J%%%%%%J%%%%J%%%%J%%%%J%%J%%J%J%%J%%J%%J%%J%%J%%J%J%%J%J
26713A6%%J%%J%J%%J%J%J%J%J%JJ%J%JJ%JJ%JJJ%JJJJJJKJJKJKJKKKKKKLLKMLMLMNMNNNNNMMML
26638A37LLKJJ%kkmmopqj0j2j3j4j5j5j5j4j4j3j3j1j2j1j0j0rqqpommljj%KKLLMNMMNMNMLMLL
26581h1KLKKJKJKJJJ%JJJ%J%J%J%J%%J%J%J%%J%%J%%J%%J%%%J%%%%%%%%J%%%J%%J%%%%%%%j%%j
26507d7%%j%%j%%j%j%%%j%J%%%%J%%%%J%%%%%J%%%J%%%J%%J%%J%%J%%J%%J%J%%J%%J%%%%%%%%%
26433c8%%%J%%%%J%%%%%%%%%J%%%%J%%%J%%%J%%%%%J%%%%%%%%%%%J%%%%%%J%%%%%J%%%%%%%%J%
26359b7%%%%%%%%%%%%%%%j%%%%%%%%%%%j%j%j%jjjj%jkjjkkkkjkklkllmlmmmml%OJ0J1J1J2J1
26290b9J0PMJj%j%j%j%j%%%%%J%%J%%%%%%%%%%%%%%%%%%j%%%j%%%%%%%%J%%%%J%%%%J%%%%%%J%
26217h%%%J%%%%%%%%%%J%%%%%%%%%J%%%%%%%%%%%%%%%%%%j%J%%%%%%%%%J%%%%%%%J%%%%%%%%%%
26142cJ%%%%%%%%%%%%%%J%%%%%%%%%%%%%%%%J%%%%%%%%%%%%%%%%%%%%%%%%%%%%%%%%%%%%%%%%%
26066@%%j%%%%%%%%%%%%%%%%%%%%%%j%%%%%%%%%%j%%%%%%%%%%%%%%%%%%%%%%%%%%%%%%%%%%j%%
25991d%%j%%%j%%%j%%%%%%%%%%%%J%J%JJ%J%%%%%%J%%%%%%%%%%%%%%%%%%%%j%%%%%%%%%%%%%%%
25916b%%%%%%%%%%%%J%%%%%%%%%%%%%%%%%%%%%%%%%%J%%%%%%%%%%%%%%%%%%%%%%%%%%j%%%%%%%
25840a%%%%J%%%%%%%%%%%%%%%%%%%j%%%%%%%%%%%%%%%%%%%%%%%%%%%%J%%%%%%%%%%%%%%%%%%%%
25765@%%%%%%%%%%%j%%%%%%%%J%%%%%%%%%%%%%%%%%%%%%%%%%%%%%%%%j%%J%%%jJ%%%%j%J%%%%%
25690@%%%%%%%%%%%%%%%%%%%%%%%%%%%%%%%%%%%%%%%%%%%%%%%%J%%%%%%%%%%j%%%%%%%%%%%%%%
25614@%%%%%%%%%%%%%%%%%%%%%j%%%%%%J%%%%%%%%%%%%%%%%%%%Jj%%%J%j%J%%%%%%%%%%%%%%%%
25539A%%%%%%%%jJ%%%%%%%j%J%%%j%%%%%%%%%%%%J%%%%%%%%%%%%%%%%%%%%%%%%%%%%%%%%%%%%%
25464A%%%%%%%%%%%%%%%%%%%%%%%%%%%%%%%%%%%%%%%%%j%%%%%%%%%%%%%%%%%%%%%%%%%%%%%%J%
25388A%%%%%%%%%%%%%%%%%%%%%%%%%%%%%%%%%%%%%%jJ%%%%%%j%%%%JjJ%%j%J%%%%%j%%%J%%jJ%
25313A%%%%%%%%%%%%%%%%%%%%j%%%%%J%%%%%%%%j%%%%%%%%%%%%%%%%%%%%%%%%%%%%%%%%%%%%%%
25238@Jj%%%%%%%%%%%%J%%%%%%%%%%%%%%%%%%%%%%%%%%%%%%%%%%%%%%%%%%%%%%%%%%%%j%%Jj%%
25163@%%%%J%j%%%%%%%J%%%%%%%%%%%%%%%%%%j%%%%%%%%J%j%%%%%%%%%%%%%%%%%%%%%%%%%%%%%
25087@%%%%J%%%%%%%j%%%%%%%%%%%%%%%%%%%%%%%%%%%%%%%%%%%%%%%%%%%%%%%%%%%%%%%j%J%j%
25012a%%%%%%%%%J%%%%j%%%%%%%%%%%%J%%%%%%%%%%%%%%%%%%%%%%%%%%%%%%%%%%%%%%%%%%%%%%
24937@%%%%%%%%%%j%J%%%%%%%%%%%%%%%%%%%%%%%%%%%%%%J%%j%%%%%%%%%%%%%%%%%%%%%%%%%%%
24861@%%%%%%%%%%%%%%%%%%%%%%%%%%%%%%%%%%%%%%%%%%%%%%%%%%%%%J%%%%%%%%%%%%%%%%%%%%
24786A%%%%%%%%%%%%%%%%%%%%j%J%%j%%%%%%%%%%%%%%%%%%%%%%%%%%%%%%%%%%%%%%%J%%%%j%%%
24711@%%%%%%%%%%%%%%%%%%%%%%J%j%%%%%%J%%%%%%%%%%%%%%%J%j%J%%%%%%%JJ%%%%%%%j%%%%%
24635C%j%%%%%%%%%%%%%j%%%%%%%jJ%%%%%%%%j%%%%%%%%%%%%%%%%%%%%%%%%%%%%%%%%%%%%%j%%
24560aJ%%%%%%%%%%%%%%%%%%j%%J%%%%%%%j%%%%%%%%%%%%%%%%%%%%%%%%%%%%%%%%%%%%%%%%%%%
24485a%J%%j%%%J%%%%%%%%%j%%%J%%j%J%%%%j%%%%%J%%%%%%%%%%%%%%%%%%J%j%%%%%%Jj%%J%j%
24409@%%%%%%%%%%%%%%%%%%%%%%%%%%%J%j%%J%%%%%j%J%%%%%%%%j%%J%%%%%%%%%%%j%%%%J%%%%
24334A%%%%%%j%%%%%%%%%%%%%%%%j%%%%%%J%%%%%%%%%%%%%%%%j%%%%%%%%%%%%%%%%%j%%J%%%%%
24259a%%%%%%%%%%%%%%%%%%%%%%%%%%%%%%%%%%%%%%%%%%%%%J%%%%%%%%j%%%%%%%%%J%j%%%%%%%
24183a%%%%%%%%%%%%%%%%%J%%%%%%%%%%%%%%Jj%%%%%%%%%%%%%%%%%%%%%%j%%%%J%%%%j%J%%%%%
24108@%%%%%%%%%%%%%%%%%%%%%%%%%%%%%%j%Jj%%%%%%%%%%%%%%%%%%%%%%%jJjJ%%%%%%%%%%%%%
24033a%%%%%%%J%j%%%%%%%%%%%%%%%%%%j%%%%%%%%%%%%%%%%%%%j%%%%J%%%%%%%%%%%%%%%%j%%%
23957c%JJJ%%J%%%%%j%%j%%%%%%J%%%%%%%%%%%%%%%%%%j%%%%%%%%%j%%%%%J%%JJ%%%%%%%%%%%%
23882A%%%%%j%%%%%j%%%J%%%%%%%%%JJ%J%%%%%%%%%j%j%%%%%%%%%%%%%%%%j%%%%%jJ%%%%j%%%%
23807a%%%%%%%%J%%%j%%%%%%%%%J%%J%%%%%%%%%%%%%%%%%%%%%%J%%%%%%j%%J%%%%%J%%j%%%%%%
23731B%%%%%%%J%%%%%%%%%%%%%%%%%%%%%%j%%%%%J%%%%%%%J%%J%J%%%%%j%%%%j%%%%%%%%%J%j%
23656D%%%J%%%%%%%%%%%%%j%%%%%%j%j%%jj%j%%%%%jJ%%%%%%%%%%%J%J%J%%j%%j%j%J%%j%%%%%
23581aj%%%%j%jJ%%%%%%%%%%%%%%%J%j%%%%J%%%%%%%%%J%%J%J%%J%%j%J%%%%J%%%%%%%%%%%%j%
23505B%%J%%j%j%%%%%%j%%%%%%j%J%%%J%%%%%%%%%%%%%%%%%%%%%%%%%%%%%%j%%j%%%%%J%%%%%%
23430@%Jj%%J%%%%%%%%%%%%%%%%%%%%J%j%%J%j%%%%%%%%j%%J%%Jj%%%%%%%J%j%J%%%j%J%jJ%%%
23355B%%jj%jj%%%%%%%%%J%%j%%%%%%J%%%%%%J%%%%J%%%%%J%%%%%%j%%%j%%%Jj%%J%%%%J%%%J%
23279C%%%%%J%J%%J%%Jj%%%%%%%%j%j%%j%%%%%%%%%%%%%j%j%%%%%%Jj%J%%%%%%%j%%%%%%%%%j%
23204@%%%%%jJ%%%%%%%%%%%%%j%J%%%%%%%%j%%%%%%J%%j%J%j%%%%%J%%%%%%%%%%%j%%%%%%%%J%
23129@j%J%J%J%%%%%%j%j%%%J%%%%%J%%%%%%%%%%%%%%%%%%%%%%%%j%%%%j%J%%%%%%%j%%%Jj%%j
23054a%%%%%J%j%%%%J%J%%%j%J%%Jj%%%%%%%%%%%j%j%%J%%%%%%%%Jj%J%%%%%%%%%%%%%%j%%%%%
22978@%%%%%J%%%%%%%J%%%%%J%%Jj%%%j%%%%%j%j%%%%%%%%%%%%J%%%%%%%J%%%j%j%%J%%%J%%%%
22903Bj%J%%%%%%%%%%%%%%%J%%%J%%%%%%j%%j%%%jj%%%%%%%%%%j%%%%%%J%%%%J%%%JJ%J%%%%%%
22828Dj%%%%%j%%%j%%%J%%%%%%%j%%J%j%J%%%%%%%%%%%j%%%%%%%jJ%%j%jj%%%J%%j%%%J%J%%%j
22752a%%%%%%%%%%J%%%%%%%%%J%%%%%%%jJ%J%Jj%%%%%Jj%%j%%%%%J%%%j%%%%%J%j%j%J%j%%%%%
22677@%%%%%j%%%jJ%J%%%%%%%%%Jj%%%%%%%%%%jJJ%j%j%%%%%%%%j%%%J%J%%%j%%%%%%%J%%j%%%
22602a%J%%%%J%%%J%%%j%%%%%%j%%J%%%%%J%j%%%%%%%%%j%%%%%%J%%%J%%%%%%%%j%%%%j%%%J%%
22526A%%%%%%%JJ%j%%J%%%%%J%%j%%%%%%j%%%j%%%J%%%%%%%%j%%%%%%j%%%%%jJ%%%%%%%J%%%%j
22451@%J%j%%j%Jj%J%j%%%J%%%%%%%j%%%%Jj%%%%J%%%j%J%%%%%j%%%%J%%%%j%%%%%%%%%j%%%%%
22376b%%J%%%J%%j%%%%%%%%%%j%J%%%%%%J%%%J%%j%%%%%%%j%%%j%%j%%%%%%J%%%%%%j%%%J%%%%
22300bJ%%%%%%%JJ%%%%%Jj%%%%%%j%j%Jj%%j%%%%%%%jjjj%%%JJJ%J%%J%%J%J%%j%%%j%%%%%%J%
22225@Jj%J%%J%%%j%j%J%J%%%%%%%%%%j%%%%JJ%JJJ%j%j%%j%j%J%j%%%%j%j%j%%%%j%%%j%j%%%
22150d%%%%J%JKJ%J%%%%%%j%%j%%%%j%%J%%j%%%%j%%%%%%j%%%%%%%%%%%%%Jj%%%%%%%%J%%jJ%J
22074a%%%%%%%%%%%%%J%%J%%%%%%%Jj%%%%%%%%J%%%%%%%%%%%%%%j%J%j%%%J%J%jj%j%%%J%%j%%
21999@%%%%%J%%jJj%%J%%jj%%%%%%%%%%%%J%%%%%%%%%%%%%%J%%%%%%j%%J%%%%%j%J%%%%%%%%j%
21924@J%%%JJj%%%%%J%%%%%%%%%%%%%J%%%%%%%j%%J%%%j%%%Jj%%%%%%%%%J%%%%%%%%j%%%%%%%%
21848C%%%J%%j%%%%%%%j%J%j%j%%J%%%%J%jJ%%%%%J%Jjj%J%%%%%j%%%%%%j%J%%%%%j%%%%%%%j%
21773A%J%j%Jj%%j%Jj%J%j%%J%j%J%j%%%%%%%%%%J%j%J%%%%%%%j%%%%%%jJ%%%%%%%%%%%%%%%%%
21698@%%%%%%%%J%%%%%J%%%%%%%%jJ%%%jJ%%%j%%%j%J%%jj%J%%%%%%%j%%%j%%J%%%%%j%%%%J%J
21622@j%%%%J%%%%%%%%%%J%j%%%%%%%%%%%%%%jJJ%%%j%%%%%%%%%%%j%J%%%%%%j%%%J%j%%%J%%J
21547A%Jj%%%%%%%%J%%%%%%%%%%%%j%%%%%%%J%j%%%%%%%j%%%j%%%%%jJ%%%J%j%%%%%%J%%J%%%J
21472Bj%%%%%%%%%%%J%%%j%%%%%%j%%%J%%%%%j%J%%%%J%%%%%%%%%%J%j%%%%%%%Jj%j%%J%jJj%%
21396Aj%J%%%JJ%%%%%j%%%%%%j%%%%%J%j%J%j%%%%%j%%%%Jj%%%%%%J%%j%%%%%%jJ%j%J%%j%j%J
21321a%%%%%%j%%j%%J%j%%%%%%%%j%%J%J%%%%%%jJJJJ%%%J%%J%%%%%%%%%%%%%%%J%%j%%%%%%%%
21246C%%j%%%J%j%%%Jj%%%%%j%%%%%j%J%%%j%%%%%%%%%%%%%%%%%%%J%%J%j%%j%%%%J%%%%%%%%%
21170Aj%%%%j%%%%%%%j%%%%%%%%J%%%%%%J%%%%%%j%%%%J%%J%j%Jj%%%%j%%%%%%%%%J%j%J%%%%%
21095@%%Jj%%%%%%j%%%J%J%%%%%%J%j%j%Jj%J%%%J%%%%%jJ%%%%%jj%J%%j%%J%%J%%%%%%%%%J%%
21020Cj%J%%j%%%%j%%%J%%j%%jj%JJ%%%%%j%%%%%%J%%%%%%%%%J%%J%%%%J%J%%%%%%j%%j%%%%j%
20945B%%%%%%%j%%%j%%J%j%JJ%%%jJJ%j%%%%%%%%%%%%J%%%j%%jJ%%%%%j%%%%%J%%%j%%%%%%%%j
20869@%%%%%%%j%%%%J%%j%J%%%%%%%J%jjj%J%%J%%j%%%%J%%%%%j%%%%%J%%jJ%%%%%%%Jj%%%%%J
20794A%J%%%%%%%J%%%%%%%%%j%%%%j%%%%J%%j%%J%%jJ%j%%%%%Jj%jJ%%Jj%%%%%%%jJ%%j%%Jj%%
20719@%%J%j%J%jJ%Jj%%%%jJ%%%Jj%jJ%%%%j%%%%%%%%%%j%%J%%%%%%%%%%%%%J%j%%%%Jj%%JJ%j
20643A%%%%%%%%%jJ%%j%J%%j%%j%%j%%j%%%%J%%j%%%%J%%%%%%%JJ%%%%%%J%%%%%%%jj%%%%%j%J
20568a%%%%%%%%j%%%%%%J%%%j%%j%%%J%%%%%JJ%%%J%j%%%%J%j%%%%%j%%%J%J%%%%%j%jJJ%J%j%
20493Aj%%J%%j%%J%%%%%%j%%%%%%%%j%%%%%%%J%%%%%%j%%%%%j%J%J%%%%%%%j%J%j%%%%%J%j%%%
20417a%%J%%%%jJ%%%%%%%jJ%j%%%%%J%%%j%%Jj%%%j%J%Jj%J%%%%J%%%j%J%%%j%%j%%%%%%%%%%%
20342a%%%%J%j%%%%%%%%JjJ%%%%%%J%%%j%%%J%%%J%%%J%%%jj%%%%%%%j%%%%%%%%%J%Jj%%J%%%%
20267B%%%%J%%%jjj%%%%J%%%j%%%jJ%%%%%%%%%%%%%j%%%%%%%%%Jj%j%J%%j%%J%j%%j%JJ%%%%j%
20191b%J%%%%j%%%j%%J%J%%%%J%%%J%%%%%J%%%%%%j%j%%jj%j%%%Jj%j%%J%%%%%%J%J%%%%%J%J%
20116A%%%jJ%%%j%%%%J%%j%%%%%%%J%%jj%j%%%J%%J%J%%%%%%%%j%J%j%%%%%%%%J%J%%%JJ%jj%%
20041BJ%J%%jJ%J%j%%jJ%%Jj%jj%J%j%%%%%J%JJj%j%%%%%%j%%j%%%%%%j%%%J%j%%%%%%Jj%J%J%
19965B%%J%%%j%J%j%J%j%%%%%%%%%%j%%J%%%%%%%%%%%J%%%%%j%J%%%j%j%%%%%%%%%%%%%%%%%%%
19890A%%j%%jJ%%%%%%%%%JJjjj%J%%%%%J%%%jj%J%%jJ%%%%j%J%%%%%%J%%%%%%%%%Jj%%%%%%%%%
19815AjJ%Jj%%%j%%j%%j%jJ%j%%J%J%%%%%%%%J%J%%%%%%%J%%J%%j%%%%%%jj%%%J%%%%%%%%j%%%
19739@%%J%%j%J%%%jJjJ%%%%%%%%%%j%%j%%jJ%%j%%%%%J%%J%%%%%%%%J%%%J%j%J%j%j%%%%%Jj%
19664@J%j%j%%%%%%%%%%%%j%%%%%%%%J%J%%%%J%%%j%%%%j%%Jj%J%%jJj%%%J%%%j%%J%%%%%j%%j
19589bj%Jj%J%%%J%%%%%%%%J%%%%j%%j%jj%%J%jJ%%%%jJ%JJ%j%%%%%%JJ%j%%J%j%J%%%%%%%%J%
19513A%j%%%%%%%JjJ%%%j%%%JJ%%%%%%%%%j%Jj%%J%j%%%%%J%j%%%J%j%%%%%%J%%%%%j%%%%%Jj%
19438A%%j%JJJ%jjJ%J%%%%%%%j%Jj%j%%%J%%%%%%%%%%%%%%%%%%%%%Jj%J%%%j%%j%j%%%%%%%%%%
19363@j%%%%%%%%%%j%%J%%J%%%J%%%%%J%Jj%j%%%%%%%%%%Jj%%J%%%j%%%%%%%%%%%%%%%%%j%%%%
19287@J%%%%%%%%jJ%j%%%%%%%jJj%J%%%Jj%%%%%%%%j%%%J%%%%%%%%j%J%%%%%%%j%%%%Jj%j%%%J
19212a%%J%%j%%%%%J%%%%jJ%%%%%%%%%%%%%%%%%%%jJ%j%%%J%J%%%jj%%%%%%%%%%%%%%JJ%j%j%%
19137a%J%jJ%%%J%%%%%J%Jj%%j%%%j%j%%J%%Jj%%%J%%%%%J%%%%%%%j%%%J%%%%%j%%%j%J%%%%%%
19061A%%%%%%j%%J%%j%%%%j%j%J%J%Jj%j%J%%%%Jj%%J%%%%%%%%%%Jj%Jj%%%Jj%%%J%j%%%%%%%%
18986A%%%j%%%%j%%%J%%%j%%%%%%%%%%J%%%%%%jJ%%%%%%%%%J%%j%%%%%%%%%%%%%%%J%%%%j%%J%
18911A%%jJ%%j%%%%%J%%%%jJ%%%%%%%%j%%%%j%J%%%%%%%%%%%%%%%%%%%%%%j%%%%%J%%%j%Jj%%J
18836@J%%%%%%%%j%%%%%Jj%%%%j%%jJ%%%%%%%%J%%j%J%%jj%%%%%%%JJ%%%%%%%%%j%%%%J%%j%%%
18760a%%%J%%%%%%J%%%j%%%%j%%%%%%%%%%%%%%J%J%j%%%%%%%%%%j%%%%J%%%%%%%%%J%J%jJ%%%%
18685B%J%%%%%%%J%%%%%%j%%%%j%%%%%%%%j%%%%%%%%%%%%%j%%%%%%%%%%%%%J%%%J%%%%%%Jj%j%
18610A%%%%J%%%jJ%%%%%%%%%%J%j%j%%%%%%%%%%%j%Jj%%J%j%%J%%%%j%%%%Jj%%%j%J%%%%%j%%%
18534aJ%%%%%%%%%%%J%j%%%%%%%J%%j%%%j%JJ%%%j%%%%J%%%%j%%J%%j%%%%%%%j%%%%%%J%%%%%%
18459@%j%%%%%j%J%Jj%%%%%%%%Jj%J%%jJ%%jJ%%Jj%j%%%Jj%%%Jj%%J%%j%%J%%%%%%%%%%%%%jJ%
18384@%%J%%J%%j%%%%%%%%%%%%%%%%%%J%%j%%j%%%%J%%%%%%%%%%%%%%%%%%%%%%%%%%%%%%%%%%%
18308A%%%%%j%j%%%%%%%%%%%J%%%%%%%%%%%%%jJ%%%j%%%%J%%%%J%%%%%%%%%%j%%j%%J%%j%Jj%%
18233a%%J%%%j%Jj%%%%%j%%%J%%%%j%J%%%J%j%%%%%%J%%%%%%%jJ%%%%%%j%%J%%%%%%%%%%%%%%%
18158@%j%jJ%%%%J%j%%%%%%%%%%%%J%j%J%%j%J%%%%%%%%%%%%%%%%%J%%%%%%j%%J%%%%%%%J%%%j
18082A%%%%J%%%%%%%%%j%%%J%%j%%j%%%%%%%%%%%J%%%%%%%j%%%J%j%%%J%%%j%%%J%%%%%%J%j%%
18007A%%%%%%%j%%%%%%J%%JJj%j%%%%%%%%J%%%%%%%j%%%%%%%%J%%j%Jj%%%J%%j%J%%%%%%%%j%%
17932A%%%%jJ%%%%%j%%%%%%J%j%%%%%%J%%%%%%J%j%%j%%%%%%%%j%%J%%%%j%%%%%%%%%J%%j%%J%
17856@%%%j%J%%%J%%%j%%J%%%%%%%%%%%%%%%%%j%J%%%%J%jj%%%%%J%%j%J%%%%%%%%%%%%%%%%j%
17781@%%%%j%%%%J%%j%%Jj%J%%%%%%%%j%%%%%%%%%%%Jj%%%%%%%J%%%j%Jj%%j%%%%%%J%%j%%J%%
17706a%%%%%%%%%%%%%%%%%%%%j%%%%J%%%J%J%%J%%%%%%J%%%j%%%j%%%%%%%%%%%%%%%%%J%%%%j%
17630A%%%%%%%%%%%%%%j%J%%%%%%%%%%%%J%%jJ%%%%j%jJ%%J%%j%%%j%%%%jJ%%j%J%%%%%%J%jJ%
17555A%%%%%%%%%%%%%%j%%%%%%%%%%%%%%%%%%%%%jJ%%J%j%J%%%j%%%J%%%j%J%%%%%J%%j%%%J%%
17480Bj%j%%%%%j%%%%%Jj%%%J%%%J%jJ%%%%%%%j%%%%%%%%%%j%%%%%%%%%j%%J%J%%%j%%%%j%J%%
17404a%%%%%%J%j%%%%%%%%%%%J%%%j%%J%%%j%%%%J%%%%%%%%%%%%J%%%%%j%%%%%Jj%%%%%%%%j%%
17329a%%%%J%%j%%%J%%%%%%%%%%%%%J%j%J%%j%%%%%%%J%%%%j%%%%%%%%%%%%j%%J%J%%%%%%%%%%
17254A%%%%%%%%%%%%%%J%%J%%%%%%%%%j%%J%%%%%%%j%%%%%%J%%j%j%%%%%%%%%%%%j%%%%%%J%j%
17178@J%%%J%j%J%%j%j%%J%%%%%%%%%%jJ%j%%%J%j%%J%%%J%J%%j%%%J%%%%%%%%j%%%%%%j%%%%%
17103A%%%jJ%%%%%%%%%%%%%%%j%%%J%%j%%J%%%%%J%%%j%%%%%J%%%%%%%j%%%J%j%%%J%%%%j%%%%
17028A%%j%%%J%%%J%%%%%%%%%%j%J%%%%%%%%%%%%j%%%%%%%%%%%j%%%J%%%%j%%%%%%%%%%J%%j%%
16952@%%%%%%%%%%%%%%J%%jJ%%%%%%%%%%%%%%%%j%J%%%J%%jJ%%%%%%%%%%j%%j%%%%%%%J%%J%%j
16877A%%%%%%J%%%%%%%%%%%%%jJ%J%%j%%j%%%%%%%%J%%%j%%%%%%%%%%%%J%jJj%%%%%%%J%J%%jj
16802A%%%%j%%%%%%%%%%%%%%%%%%%%%%%%%%%%J%%%%J%j%%%%%%%%%J%%%%%j%%%J%%j%%%%%%%%%j
16727@%J%%%%%%%%%%j%%J%%%%%%J%%%%%%%%J%%%j%%%j%%%%%%%J%%%%jJ%%%%%%%%%%%Jj%%%%J%j
16651B%%%%j%%%%J%%%%%%%j%%j%%J%j%%%%%%j%%%%%%%%J%j%%%J%%%%%J%%%%%j%%%%%%%%%%%j%%
16576aJ%%%%%%J%j%J%%%%%J%j%%%%%%%%%%%%j%%J%j%j%J%%%%%%%%J%%%%%j%%%%%%%%%%JjJ%J%%
16501Bj%%%%J%%%%%%%%%%%%%J%%j%%%%%%%%%%%%%%%J%%%j%%%jJ%j%%Jj%%J%%%%%%%j%%%%%%j%%
16425@%%%%%%%%%%J%%j%J%%%%%%%%%%%%%%%%j%%%%J%%%%%%%%%%j%%%%j%J%%%%%%J%%%%%%%j%%%
16350@%J%%%%%%%%J%%%jJ%%%%%%%%%j%J%%%%%%j%%%%%%%%%%j%%%J%%%j%%J%%%%%J%%%%%%J%J%%
16275DJKJ%JJJJKKKKLLMMNOPOPPONLJjkmnnnonmnnmllklkkjkjk%jj%j%%j%%%%J%%JJJJ%J%%KJJ
16199B1JKJKJJJJJJ%J%%%%J%JJKKKLKMMMNMNNNLLLJ%%%jlkmlnmmmlllklkkkkjj%j%%%%%%jjjjj
16125C4jkkjkkjjjj%jjjjj%j%j%%%%%%%J%JJJJJJKKLKMMNNOPPQPONLJklmoooooommmmlmklkjkj
16051A8jkjjj%%j%jj%j%%%%%j%%%j%%%%%%j%%%%%%%%%j%%%%J%j%%%%%%J%%j%%%%%%%%%j%%%%%j
15976B%J%j%%j%J%%jJ%%%%%%%%jJ%%%%%%J%%%%J%%%Jj%%%%j%%%J%%%%jj%%J%%%j%%%%%%%%%%j%
15901A%%%%j%J%j%J%%%%%%%%%%%%%j%%J%%%%%j%%%J%%%%%%%%%%%%%%%%j%%%%%%%%%%%%%j%%%%%
15826a%%%Jj%jJ%%%%%%J%j%%J%%J%%j%%%%%%%%%%%%%%Jj%%%%%%%%%%J%%%j%%%%%%j%J%%%J%%%%
15750A%%%%j%J%%%%j%%%j%%%%%%J%j%%%%%%%%%%%%j%%%%%%%%%%J%j%%%j%J%%%%%%%%%%%Jj%j%J
15675b%J%%%j%%%%%J%%%jJ%%%%%%%%%%%%%%%%%%%%jJ%%%%%%%%%j%%%%J%%%Jj%%%%%%%%J%%%j%%
15600aj%%%%%%%%%%%%Jj%j%%%%%%j%%%%%J%%%%J%%%%%%%%J%J%%%J%JJ%JJJJJKKKKKLLMMNNOOOO
15524F6NLK%klmnnnmmnmmllllkkkkjjjjj%jjj%%j%%j%jj%%%j%%%j%%%j%%%%jJ%%%%%%j%%J%%%%
15450d%%%%%%%%J%%%%%%j%%%%%J%%%%%j%%%%%j%%%%%%%%%%Jj%J%J%%%%%%J%%%%%%J%%J%JJJJJK
15375GKKKLLLLMMMNOOPOQPPPMLJ%lmnnooponnmmmlmmllkkkkkjjkj%jjjj%%%jj%%%j%%j%%%j%jj
15299c%j%jj%j%%J%%j%%%%%j%%%%%%j%%%%J%j%%%%%j%%%%%jJ%%%%%J%%j%%%%%%%%j%J%%%%%j%%
15224a1j%%%%%%%%%%%%%%%%%%%%%%%%%j%%%Jj%%%jJ%%%%%%%%%%%%%jJ%J%J%JJ%J%J%JJ%%KJ%JJ
15150@KKJ%%j%jjjjjj%jjkjj%j%j%%%%%%%j%%%%%%%j%%%%%jj%j%%Jj%j%%%%%j%%%%%jJ%%%%j%%
15075a8%jJ%%J%%j%%%%%j%jJ%%J%%j%%%%j%%%%j%%%%%%%%%%%j%j%j%%%%j%%%%JJ%%%J%%%%%%J%
15000b1%J%JJJKJJJKKJKLLMMMMMLKJ%%jjkjkjkjjjjjjjjjkj%jj%j%j%%j%j%j%j%j%j%j%J%%j%%
14926f%%j%JJ%J%JJJJ%JJ%JJJJJJKJKJKJKKKKKLKLKLLLLLMMLNMNNONPPQQRJ0J2J2J5J6J7J9K1
14860B54K4K7K9L3L7M1M5M8N2N6N9O4P3Q5J00J19J43J69J99K27K55K83L15L49L90M36M93N59
14831D964O40P34Q43R71J118J283J452J604J692J660J440R86L58k82p85j100j259j315j304
14812A3700j247j176j104j027r43q55p64o76n95n21m54l99l54l17k86k61k35k13j92j72j54j40
14790A615j25j13j01r0p9p1o4n9n6n2m9m6m2l8l6l2l0k8k6k5k4k2j9j8j6j6j4j2j2j2j0rrpppp
14752B32nnnmmmmmklkljkjjjj%jJ%%JJJJKKKLKMLMNMNNNOOPPPRQJ0RJ1J1J3J4J6J9K2K5K8L1L6
14691E25M1M5N1N7O2O9P5Q0Q7R3J00J12J27J50J75K06K43K84L26L69M13M60N11N67O35P14Q08
14663G385R21J052J205J381J580J795K016K213K339K329K115J650R40R3p06j302j654j812j854
14644B1686j825j750j655j555j448j331j209j084r61q50p48o60n84n22m71m27l89l52l18k87
14624C260k58k33k10j89j70j53j36j22j10j03r6r2q5p8p3o6o2n6n2m9m5m3m0l7l5l2k9k7k4k2
14593E33k1k0j8j6j6j5j4j3j3j1j1j0j0rrqqqppooponnnonmmnmmmmmmllmlllllllklllklkkklk
14533A43lkkklkkkkjkjkjk%kjjjj%%%j%jj%j%jj%%j%JJJ%%%jjjjj%j%%j%%%J%%%%%%%%j%%%%JK
14460A00JKKKKJJ%%jjllllklklkkkkkjjkjjjj%jjj%j%j%j%j%j%j%%j%jjj%j%%%j%j%%%%j%%j%j
14386E0%j%%%%%%%jj%%j%%%%%%jJ%%%%%j%j%%%%j%%Jj%j%J%%%%j%jjkjjlkljkkkj%%JKKKKKKKJ
14312C6JJJJJJ%J%JJJJJKJJKKJKKKLLLLJJJjjjj%%%%j%%%%%%J%%%JJ%JJ%J%J%%%%J%j%%jJ%%%%
14238H0%%%%J%JJJJJKKKKKKJKJKKKKKLLLKMLLMMMLMMNMNNNNPOPPQQQQRRJ1J0J2J2J4J4J7J8K1
14174C91K3K7K9L3L6L9M3M7N2N9O4P0P9Q8R7J08J17J28J37J48J63J80K03K32K66L03L42L83M30
14144D317M84N46O21P07Q06R22J057J213J396J604J842K101K362K587K716K666K346J698P76
14125C2767k23j075j653j973k106k125k067j969j856j736j605j464j319j175j041r18q07p08
14107F947o22n48m83m24l74l30k93k65k44k28k15k02j88j74j60j47j36j26j18j09j00r2q4p7p0
14081A138o4o0n5n0m8m4m1l7l5l1k9k6k4k1k0j9j7j6j5j4j2j2j1j0qrqpppoonnmmmmklkklkjj%
14033C27j%%%JJJKKKLMMMMMNONOPOPQRQJ0J2J3J4J6J8K0K3K5K9L2L7M1M6N2N8O5P1P6Q3R0R7
13984A353J06J18J32J50J70J94K17K42K70L03L43L89M44N06N79O62P60Q74J003J147J299J441
13962A2702J546J571J465J182O94P0n37r80j218j304j307j267j198j118j037r59q75p90p02o20
13942E318n44m74m13l59l11k71k37k06j80j60j44j35j29j25j20j14j07r8r1q4p8p3o8o3n7n1m7
13914E79m2l8l4l2l0k7k4k3k1j8j7j5j5j3j2j1j0j0qrppopononmmlllllmlklkkjkkjkkkkjjjkj
13859F2jjjjjjjjkjjkjjkjjj%jjj%jjjjjjjjk%j%%%J%j%%%%J%%%j%j%j%jkjkkjjj%J%J%%J%%%J
13785A8J%%%%%%%%%%%%%%jjj%%j%j%%%j%%%%%%j%%%%%%%%%%%%%Jjj%%J%Jj%j%%%j%J%%%%%%j%%
13711A0%j%%%%j%%%%%%%%J%%%%j%%%%j%%%j%%j%%%%%%%%%%%J%%j%j%%%J%%%%j%%%jj%%%%%%%j%
13636Aj%%%%JJJJJ%%%%%%%%%%%%%%%j%%%%%%%j%%%%%%%J%%%%%%%%%%%%%%%jJ%%%%%%%%%%%%%%%
13561D%j%%%%%%%j%%%J%j%%%%%%%%J%%%%%%%%%j%%%%Jj%%%J%%%%j%J%%%%j%%%J%%j%%%%J%%%%%
13486Cj%%J%%%%j%%%J%%%%%%%%j%%j%%%%JJ%%%J%%J%%%%%JJJJJ%JJKJJJKJJJKKKKLLMMMNOOPPP
13410H6PQPPNLJjlnnopppponoomnmlllklkjkkkjjjjjjk%jj%jj%j%%j%jj%J%%%%%%%%%%%%%j%%j
13336@J%J%j%%%j%J%%jj%%%JJJ%%%J%%%%%j%%%%jJ%j%%%%%%J%%%%%%%%%%%J%%%%J%%J%%JJJ%J%
13261I%JJJJKKKKKKLMMMNNPPPQPONJ%lnnoopononmnlmkllkjkjjkkjj%j%%jj%jj%j%%%j%%%%%%%
13185@%%%%j%%%%%%%%%%j%%%%%%J%%%%j%%%%%%%%%%%%J%%%J%%%%%%%%%%%%%J%%%%%j%J%%%%j%j
13110aJ%Jj%%%%j%%Jj%j%J%%%%%%%%%%j%%%%%%%%%%J%%%j%%%%%%%%J%%Jj%%%%%jJ%%%j%%J%%%%
13035a%%%%%%%J%%%j%%j%j%%J%J%%%j%Jj%%%%Jj%%%%%%Jj%%J%%j%%%J%%j%%%J%%%%j%J%%%%%j%
12959bJ%%%%%%%%%%%%%%%%J%%%%%%%%%%%%%%%%%j%Jj%%J%%%%%%%%%%%%J%%%jj%J%%%%%%%Jj%%%
12884@%j%%%J%%%%j%%J%%%%j%%%%J%%jj%%%JJ%%%%%Jj%%%%%%%%%%j%%%%%%J%%%%%%%%%J%%%%%%
12809A%%%%%jJ%%%j%%%J%J%%%%jJ%%%%j%%%J%%%%%%%j%J%%%j%%%%%j%%%%J%j%%%%%%%%%%%%%%J
12733A%%%jJ%%%%%%%%%%%%%%%%jJj%%%%%%%%%J%j%%%%j%%%J%%%%%J%%%j%%%%%%J%%%%%j%%J%%j
12658@%%%%%j%%%%J%%%%%j%J%%%%%j%%J%%%%%%%%%jJ%%j%%%%%J%j%%%j%J%%%J%%%%j%J%%J%j%j
12583aj%%J%Jj%%%%%%jJ%%%%%%%%%%%J%%%jJ%j%J%%%j%%%%%%%%%%%%%%%Jj%%%%%J%%%%%%j%%%J
12507@%%JJ%%j%%jJ%%%%%%%%%J%%%%j%j%jJj%JJ%%j%%%%J%%%%J%%%%%%j%J%%%%%%%%%%J%%%%%%
12432C%%%%%%%%%%%%%%%jj%J%j%%%%%%%%%%%%%%%%%jJ%%%%%%%%%%%%%J%%%j%%%J%jj%%%%jjJ%%
12357a%Jj%%%%%J%%%JJ%J%JJJ%%%%j%j%jj%%Jj%%j%%%%%%%%%J%j%%%%%%%%%%%%%j%%%%J%%J%%%
12282Bj%j%%%%%%%%jJ%J%j%%%%%j%%%JJ%%j%%%%%J%%%j%%%%%J%%%%%%J%%J%j%%%j%%%%%%%%%%J
12206B%%%%%j%J%%%%j%j%J%J%%J%%%%%%J%%jJ%J%%%%%J%%j%%j%%%%j%jj%%%%%%%%%%%%%%%j%%%
12131@%%%%%%%Jj%%%J%%%%%%%J%j%J%%%%%%JJ%J%%J%%%%J%%J%J%%%%j%j%%j%%%j%%%%j%jj%%j%
12056AJ%%%j%%%%%%%%j%%J%%%%%j%%%%j%%%%%%%J%j%%J%%%%J%j%JJ%J%%%JJ%%%J%j%%j%%j%%jj
11980Aj%%%%J%%%j%%%%%%%%%%j%%%%J%j%j%%J%%%%%%%%%%%%%J%%%%%%%j%J%%J%%%%%%%j%j%%%%
11905aj%%%J%J%j%J%%j%%J%%j%J%%%%%Jj%%%%%%J%%jj%%%J%%%%%%jj%%J%%%%%J%J%%%j%%%%%%%
11830@%%%%%%%%%%%jJ%%%J%%%%%%%%j%%%%%%%%%%%%%%%Jj%j%J%%Jj%JjJ%%%%%%%%%j%J%%%%%%%
11754Aj%%%J%%%%J%jjj%%%%%%%%J%j%J%j%%%J%%%%%%%%%%%%%j%%%%%%J%%jJ%%%%%%Jj%%J%%%%j
11679@J%%Jj%j%%J%%%%%j%%J%%%%j%J%%%%%%%%%%%%%j%J%jJ%j%J%%%%%jJ%%J%%%%%%%%%%%jj%%
11604@%J%%%%%%%%%%%%%j%%%j%j%jJ%%%%%jJ%%%%%%JJ%%%j%%J%jJ%%j%%%%j%J%%%%%J%%%%%%%%
11528@j%%Jj%J%%j%J%%%%%%%jJ%%%%%%j%j%%%%J%%%%j%J%%J%%%%%%%j%%%J%%%j%%%%%%j%%J%j%
11453bJ%%%%j%J%%%%%%%%%%%%j%J%%%j%%j%%%J%%%%J%%%%%%J%%%j%%%%j%%%%J%%%%%%%j%%%j%J
11378b%%jJ%%%%%%%%J%%%%%%j%j%%%%J%%j%%J%%%%%J%%%%J%%%%j%%J%%%j%%%%%%%%%%%%J%%%%j
11302a%%%%%%%%jJ%J%%j%%J%%J%%%%%%%%%%%%%%%%J%j%jj%%J%%J%j%%%%%%%%%%j%%j%J%%%%%%%
11227aJjjJ%%%%J%j%%%%%J%%%J%%%%%%j%%%%%%%%%%jJ%%%%J%%j%%J%%%%%%%J%%%%j%jJ%%%j%%%
11152@%%%j%J%%jJ%%%%jJ%%%%%%%%j%J%%j%j%Jj%%%J%%%%%j%%J%J%%j%%%j%J%%%jJ%%%%%%%%jJ
11076a%%%%%Jj%%%J%%%J%%j%%%%%%%%j%%%%%%%%J%%%%%%Jj%%%jJ%%%%%%%%%%%%%%%%%%%Jj%%%%
11001@jj%%%%%J%J%J%%Jj%%%%%%%%%%%%%%jJj%%%%%%%%Jj%%%J%%%j%J%j%%%%j%%%%%%J%%%%%%%
10926@%%%%%%%%%J%jJ%%%j%%%j%%%%%%%J%j%%J%j%J%%%%jJ%j%%%J%%j%J%%%%%%j%%%%j%%J%%%%
10850a%%J%%jJ%%%%%%%%%%%j%J%%%%j%%%J%%%%%%%%j%%%%%J%%%%j%%%%%%j%%%%%%%Jj%%%%%%%J
10775a%%%j%%J%%%%J%%%%%j%JjJ%%%j%J%%%%%%J%%%%%%%%%%%%j%j%J%%j%J%%j%%%J%%%%j%%%%%
10700a%%%%%%Jj%%%%J%%%%J%%%%%%%Jj%%j%J%%j%%%%%%%%%%%%J%%%%%%%%%J%%Jj%j%%%%j%%%J%
10624A%%J%%%j%%%%%j%%%J%%%J%%%jj%%%%%%%%%%%%%%%%%%%%%%%%%Jjj%%%J%j%%%%%%%%%%j%J%
10549a%jJ%%%%%%j%J%J%%%%%%%J%jjj%J%%%%%%%%j%%%%%%jJJ%%%J%%%%j%%j%J%%%%%%jJ%%%%%%
10474aJjJ%j%%%%%%%%%%%%%%%%J%jJ%%jJj%%J%%%%%%%J%%J%%j%j%%%%%%J%%%j%%J%%j%J%%%%j%
10398@%%J%%j%j%%%%%%%%j%%%J%%%%%%%%%Jj%%%%%%%%%jJj%%%%J%jj%J%%%J%%%%%J%%%%%%%%%%
10323@j%%%%%%%%%%%%%%%%%%%%%%%%%%%J%%%J%j%J%%%%%j%%%j%J%J%%%%j%%%%%Jj%j%%J%%jJ%J
10248A%j%%J%%%J%%%j%j%%%%%%%%%%%%%%%%%%%%j%%%%%%%%%%%%%%%%%J%%%%%%%%%%%j%%jJ%%%j
10172b%%%J%J%%%%%%%j%%J%J%%%%j%%%%%%%%%%%%%j%%%%%%%%%%%%J%j%%%J%%%%%%J%%%%j%%J%%
10097A%%j%%j%%%J%J%%%%%%%%%%%j%%%J%%%j%%J%%j%%%J%%%%%%%%%%%%%%%%%%%%%%%j%j%%%%%J
10022@%%%%%%%%%%%j%%%%J%J%%%J%%%jJ%%%%jJ%%%j%%J%%j%%j%J%J%J%%%j%%%%%J%%j%%JJ%%%%
9947DJ%%%%%JJJJ%JJKJKJLKKK%%kjjkkkjjjkj%jj%jjj%%%j%%%%J%%%%J%%%JJ%J%%J%%JJKKJKLK
9870B4JKK%%Jjjkjjjj%j%jj%J%JJKJJLKKKLKJJKJ%%kjjkjkkjkkj%jjj%JJ%JJJ%%J%jJ%JJJJJ%J
9795C7JJ%JJ%jjjkkjkkjjkjjjjj%%%%%JJJJJJJKKLLMLMMMMMLKLJJJ%%%%jjkklnmmmmlmklkkkjk
9720B4jk%j%%%jJ%JJJJJJKJKJLJKJJ%jk%jj%%%%%%jjjjj%jjjjj%%%%%%JKJKJJJJJKJKJK%j%jkl
9644C7kkkkkjjjkjj%%%jJ%JJKJJJ%%%j%jjkjkjjkkjjjj%j%%%%j%%j%%%%%%%%%j%%J%J%%JJ%JKJ
9569A3JJKJKJKKJ%jkjkjkkjkjjjj%jjjj%j%%%%%j%%%%%%%%%%%%%%j%%%%jJ%%%%%j%J%%%j%%%j%
9494aJ%%%%%jJ%%J%j%%J%%%%%J%%j%%%%%%%%%%%J%j%%j%%%%%%%%%%%%%%%%%%%%j%%%J%%%%%%j%
9417aJ%%%%%%%%%%J%%%j%%%j%%%%%%%J%%%%%%%%%%J%%%%%%%%j%J%j%%%%J%%%%j%%%J%%%%%J%%%
9341Bj%%j%%%%J%%j%%%%%J%%j%%%%%%%%%%%%%%j%%J%jJ%%%%%%%%%%j%J%%j%%%%%%%%%%%%%J%%%
9265@%J%%%j%j%%%%%%Jj%JJ%j%%%%jJ%%jJ%jJ%%%%Jj%j%%%%%%%%%J%J%%%%%%%%Jj%j%%%%%J%%%
9188A%%%%%j%J%j%%%j%%%%%%%%%%%%%%%%%%%%J%%%j%%%%J%j%%%J%%%%%%%%%j%%%%%%%%%%J%%%%
9112@%%%%%J%%j%%j%%%J%%%%%%%%%%%%%%J%j%%J%%%%%j%%%%%%%J%%%%%j%%%J%%%%%%j%%%%%j%%
9036aJ%%%j%%j%%Jj%%J%j%%%%J%%%jJ%%J%j%J%%%J%j%J%%%%%j%%%%j%J%J%%%%%%%%%%jj%%%%Jj
8959a%%J%%j%%J%%%J%%%%%j%%%%%%%%%%J%%%j%J%%%%%%j%%%%%%%%%J%j%%%%%%%J%%%j%%J%%%%%
8883A%%%%%%%J%%j%%%J%%J%jjj%%J%%%%%%%%%j%%%J%J%%j%j%J%%%J%%%%%%j%J%%%%%%%%j%jJ%%
8807A%%%%%%%%%j%%%j%%%%%%J%%%%j%%%%%%%%%%Jj%%%J%J%%%%jJj%%%%%%%%%%%%%j%%%%J%Jj%j
8730aJ%%%%jj%J%%%%J%%%Jj%%j%%%%%%%%%%%J%%%j%%%%%%J%%%%%%%%%%%%%%J%%jj%%J%%j%%%J%
8654@%J%%%%%%%%%%j%%j%J%%%%%%%%%%%%j%%%%%%%%%%j%%J%J%%%%%%%%%%jJ%%%%%%%%%%%%%%%j
8578a%%%%%%J%%%%%%%%%%%%%j%J%%j%%%J%%%%J%%%%%j%%%%%%%%%J%%%%%%%%%%%%%%%%%%%%%%%J
8501B%%%%%%%%%%%%j%%%%%%%%%%%%%%%j%J%%j%%%j%%%%J%%%%%%%%%%%%%%%%%%%j%%%J%%%%%Jj%
8425@%%j%%%J%J%j%J%%j%%%%%%%%%%%J%%%%j%%%%%%%%%j%J%j%%%%%J%%j%J%%Jj%%%%%%%%%%%j%
8348aJ%%%%%%J%%%%j%%%J%%j%%%%%j%%%%%%J%%%J%%%%%%%j%J%%j%%%%%%j%%J%%%%J%%%%%j%%%%
8272@%%%%%j%%%%%%J%%%%%%%%%%%%%%j%%%%%%%%%%%J%j%%%%%%%JJ%j%j%J%j%%%J%%%%%%J%%%j%
8196@%%%%%%%j%J%%J%%%%%%%%j%j%%%J%%%%%%%%%%%J%%%%%%J%j%%j%%J%%%%%j%%%%%%%%%%%%%j
8119a%%%J%J%%%%%%%j%%%%%j%J%%%%%%%%j%%%%%%%%J%%%%%%%%%%%%%j%%%%%J%%%%%%%%J%%j%%j
8043aJ%%%%%%%j%%%%%%%%J%J%%%%%%%%%%%j%%%%%%%J%%Jj%%%%%%j%jJ%%%J%%%%j%%%%%%%%%%J%
7967A%%%%%%%%%%%j%%%%%%%%%%%%%%j%%%%%J%%%%%%%%%%%%%%%%%J%%%%%j%%Jj%J%%j%%%%%%%%%
7890@%%%%%%%j%%%J%%j%%%%J%%%J%%%%%%j%%J%j%%%%%%%%j%%%J%%%j%%%%J%%%%%%%%%%%%%%%%%
7814@%%%%%%Jj%j%%%%%%%j%%%J%%%%%%%%%%%%%%%%J%%%%%j%%J%%%%%%%%%%jJ%j%%J%%%%%%%%%%
7738@%%j%jJ%%%J%%%%%%%%%%%%%%j%%J%%%%%j%%%%%%J%%j%%%j%J%%%%%J%%%jJ%%%J%%%j%%%%%%
7661@%%%J%%%%%%%j%%%%%%%j%%J%%%%j%%%J%%Jj%Jj%%%%%%%%%%%%%%%%%%j%%%J%%%%%%%%%%%J%
7585A%%jJ%j%J%j%j%%%%%J%%%%%%%%%%%j%J%j%%%jJ%%j%JJ%%%%j%%%%%%%J%%j%%%Jj%%%jJ%%J%
7509@J%j%Jj%%%j%J%j%%%%J%%%%%%J%%%j%%J%%%%J%%j%%%%%%j%%%J%%%%%%%%%%%%%%%Jjj%%%Jj
7432@%%%J%%%%%%%%%%%j%%J%%%j%jJ%%%%%%%%%%J%%%%j%%J%%%%j%Jj%%%%J%%%%%%%%%%j%%J%%%
7356A%%%%jJ%%j%%%%%%j%%J%%%%%%%%%%%%%%J%j%%%%%%%%%%%j%%%J%%%j%jJ%%%J%j%%J%jJ%%%%
7280@J%%j%%%%%%%%%J%%%%%%j%%%%%%%%%%J%%%j%%%%%%%%j%J%%%%%%j%%%J%%j%%J%%%jJ%%%%%%
7203@%J%%j%Jj%j%%%J%jJ%%%%j%%%j%%J%%%J%%j%%j%%J%%%%J%%%%%%%J%%%%%j%%Jj%%j%J%%j%J
7127@%J%%j%%%%%%%%%%J%%%%j%%J%%j%%%%%%%%%%%Jj%J%%j%Jj%%%%j%J%%%%%%%J%j%%%%%%%%%%
7051@jJ%%%%%J%j%%%%%jJ%%%j%%%%%j%%%JJj%j%%%%J%j%%%J%%%%%%%%%%%%%J%%%%jJ%%J%J%%j%
6974A%%j%J%%%%j%%%J%j%J%%%j%%J%j%%%JJ%%%j%%%%%%Jj%%%%%%%%%%%%%%%%J%J%J%%%%J%j%%j
6898C%%%J%j%j%%JJ%%j%JJK%%%j%j%jj%Jjj%%j%%%%%%%%%%%%%j%Jj%%%%%J%%JJ%%%JJJJ%%%jj%
6822Ej%%j%j%%j%%%%%%j%%%j%%%%%%%%j%%%%%%%%%%%%%%%%%%%%%J%%%%%%J%j%%%J%%J%%%J%J%j
6745B%j%%%%%%%%%%%j%jj%J%%%%%%%%%%%%%j%%%%%J%%%%%%%%%j%%%J%%%%%j%%J%J%%j%J%%%%%%
6669@%j%%%J%j%J%j%j%%%%%%%%%%jJ%%%%J%%%%%%%%%%%%%%%%%%%%%J%%%%%J%j%%%%%%%%Jjj%%J
6593@%J%%%%%%%%%%j%%%j%%J%%%J%j%%%%%%%%%%J%%jjJ%%J%%%%%%j%%%%%%%%%%%j%%J%%J%j%J%
6516A%%%%J%%%%%%jJ%%%J%J%JJJJJJKKJ%jjjjjjjjjj%%j%j%j%%%%%j%%%%%%%%%%%%%%%%%J%%%j
6440A%%%%J%J%%JJ%%JJKJJJKJK%kjkjjjkjkj%j%%%%%j%%%%%%%%%%%%j%%%%%%%j%%J%%%%%j%%%%
6364a%%%%%%%J%%j%%%%%%J%%%j%%%%%%%%%%J%%j%%%%%%%%%J%%%%j%%%J%%%%%Jj%%%%%%%%%J%%%
6287Aj%%j%%J%%%%%%%%%%J%%%%j%%%%%%%%%%%j%%%J%%%%%J%%j%%%J%%%%J%%j%%Jj%%%%%j%%J%%
6211Aj%%%%%%%%jj%%J%Jj%%%%%%%J%%%%%%%%%%%%%%%jJ%%%%J%%%%%j%%%%%%%J%%%%%%%%%%%%j%
6135@%%%%%%%%%%J%%%%jJ%j%Jj%%%%J%j%%%%%%JJ%%%%%%j%%%%%%%%%J%j%%%%j%%%%%J%%%j%Jj%
6058@%%%jJ%%%%%%%%%%%J%%%j%%%%%%%%%jJ%J%j%%jJ%%%%%%%%%%%%%%%%J%%%%%%%%%J%%%j%%%%
5982A%%j%J%%jJ%j%j%%Jj%%%%%%%J%%J%%%j%%%%%%%Jj%%%%%%%%%%%%%%%%%%%%%%%%%%%%%%%j%J
5906@%%%%j%J%%%%%%J%j%%%%%%%jJ%%j%%%%%%J%%%%%%%%%%jJj%%%J%%%%%%%%%j%jJ%%%%j%J%%%
5829a%%%%%%%%%%J%%%%J%%%%%%%%%%%%%jJ%%%%%%%%%j%%Jj%%%%%%%%J%%j%%%%%J%j%%%%%j%%%%
5753aJ%%%%%j%%J%%%%%%%%j%%%%%J%J%j%J%%%%j%%%%%%%%%j%%%%%%%%%%%%%%%Jj%%%%%%%j%%%J
5677a%%%Jj%%J%%j%%%J%%%%%%%%%%%%%%%%%%j%JJ%j%%%%j%J%%%%J%%%%j%j%%J%J%%j%%%J%%%j%
5600@%%%j%%%%%%%%%%%%%J%%%%%%J%%jJ%%%j%%%J%%%%%%%%%%%%j%jJJ%%%%%%%%%%%j%%%%%%Jj%
5524@%j%%%%%%%%%%%J%%%%%%%%%%%%%%J%%%%j%%%%%%%%%j%%J%%%jJ%j%%%j%%J%J%%%%%%%%j%J%
5448@Jj%%%%%%%J%%j%%j%%%%J%%%%%%%%%%%%%%%j%J%j%J%%%%j%J%%%%%%%%%%%%%%%%%%%%%%%%%
5371@j%%J%%J%j%j%%%%%J%%%%%%j%%%%%%%%J%%%%%%%%%%%%%Jj%%j%J%%j%%%%J%%%%%j%Jj%%J%%
5295@%%%%%%%J%%%%%%%%%%%%%%%%j%%%%%%%%%%j%J%%%%%%%%%%%%%%%j%%%%%%%Jj%%%J%%%%j%%%
5219aJ%%%%%%%%%%%%%Jj%%%%%%%%%%%j%%%%%%%%%%J%%%%%%J%jJj%%%%%%%%%%%%%%j%J%J%%%%j%
5142@%Jj%J%%%%%%%j%J%%%J%j%%%%%j%%J%%%j%%J%j%%%j%J%%%%%%J%jj%%%%J%%%%%%%%%j%%%%%
5066aJ%%j%%%J%%%J%j%%Jj%%%%J%jjJ%%jJ%%%j%J%%%%%%%J%%%%%%%%%%%%j%%%%%j%J%%%%%%%%%
4990@j%%JJ%%%%%j%%%%%%%J%%j%%%J%%%%%%J%j%%%%%%%%%%%J%%%%%%%%%j%%J%jj%%%%%%%%%%%%
4913@j%J%%%%%%jJ%%%%%%%j%JJ%%%%%%%%%%j%%J%%%%%%%%j%%%J%J%%%%%%j%%%%%%%j%%%%jJ%j%
4837a%%J%%%j%%%J%j%%jJ%J%j%%%%J%%%%j%J%%%%%%J%%%%%J%%J%%%%jJj%%%%jj%%%%J%j%J%%%%
4761A%j%%%%%%%%Jj%%J%%%%%%%%j%J%%%j%%%%%%%%%%%%%%%%%J%%%%%%%%%%j%%%%%%Jj%%%%%%%j
4684aJ%%J%j%%%J%%j%%%%%%%%%%%%%%%%%%%%%%%%%%j%%%%J%%%Jj%J%%j%%j%%J%%%%%%%%%%%%%%
4608@%%%%%%%Jj%J%%j%%%%j%%%J%J%%%%%%jj%%%%j%J%J%%%%%j%%%%%%%J%%%%%%%%%%%%%%%jJ%%
4532@%j%%%%J%%%%%%%%%%j%%%%jJ%%%%%j%%%%%%%J%%J%%%%%%%%%%J%j%%%%%%J%%%Jj%%%j%%%%%
4455@%%%%J%%j%%%%%%%%%j%%%J%j%%%J%%%%%%%%%%%%%%%%J%%j%%%%jJ%%%%%%%%%%%J%j%%j%j%J
4379a%J%j%J%j%%%%%%%%%Jj%%%%%%jJ%%%%%%%J%j%%J%%%%%%j%J%j%%%%%%%%%%%J%%%%%%%%%%%%
4302@%%%j%%%%J%%%Jj%%%%%%%%%%%%%jJ%J%%j%%%J%%%%%J%j%%%%j%J%%%%%%j%%J%%%%%%%%%J%%
4226B%%%%J%%j%%j%%%%%%%%j%%%%%%%%%Jj%%%%%j%J%j%%J%%%j%%%%%J%%%%%%%%j%%J%%%%%%%%J
4150A%%%%%%%%%%%J%J%%%j%%%j%jJ%%%%%%%%%j%%%J%%%%%%%%J%%%%%j%%%%%%%%%%%%%%%%%j%%%
4073@%%%%%J%%%%%%%j%%%J%j%%J%j%%%%%%j%%J%%%%%%%%%%%%%%%%%%J%jj%%J%%%%Jj%%%%%%J%%
3997A%%%%%%%%%j%%%%%%%%%%%%%%%%%%%j%J%J%j%%%%%%%%%%%%J%%%j%%%%%%%%%%%%%%%%%%%J%J
3921Bj%j%Jj%%%%%%%%%jJ%%%%%%%%%%%j%J%j%%%J%%%j%%jJ%J%J%%j%%%%%J%%%j%%%%%%%%%%%%%
3844@%%%%%%%%%%%%%%%%%%%%%%Jj%%%%%%J%%%j%%%J%j%%%%J%j%%J%%Jj%%%%%%%j%J%j%%%%%%%%
3768@%%%%%%jJ%%j%J%%%%%%%%j%%J%%J%%%%%%j%%%%%%J%%%J%%%%%%%%%%%%%%%%%%%%%%%%%%%%J
3692Cj%%%J%%%%%%%%%%%%%%Jj%%%%%j%%%%J%%%%J%j%%%%%%%%%%%%J%%%%%%J%%%%%%j%%%%%J%%%
3615E%%J%J%J%%%J%%JJ%%J%JJ%JJJJJJJKLKLLLMMNOPPOOONMK%kmnnoooononmmllkkkkk%jjjjj%
3539A4%%%%J%%JJJJJJJJJJJJKJKJKKJJJ%%%%%%Jj%%%%%%JJJJJJJJJJKJKLLLLMLKJKJ%%kkkklll
3464F3llkjkjkkjjkjj%j%%%%%%%%j%jjjkjjjkjjkjjjjjjj%kjjj%j%%%%J%%J%%JJ%KKKKJLKLMMM
3388D5NNNOPONMKJjlnnpnonnonlmmmlkkkkjjjjjjj%%j%%jJ%%%j%j%%j%%%%%%j%j%%J%j%jJj%%%
3313b%%%%%%J%%%jJ%%%j%%JJ%%%%j%%%%%%%%%%%Jj%%j%%%%%%%%%%%%%J%%%j%%J%%%%%%%%%%%%J
3237@%j%%%%%%%%%%%%%%%%%%J%%%%%%%%%%%%%%%%%%%j%%J%%%j%%J%%j%J%%%j%%%%Jj%J%%%j%%%
3160a%%%J%%%j%%J%%%%j%%J%J%j%%J%J%%j%%J%j%%%%Jj%%%%%%%%%%%j%%%J%%%j%j%J%%%jJ%%%j
3084a%%j%%%%J%%%jjJ%%%%J%%jJ%%J%j%jJ%J%j%jJ%%%%%%%%%%J%%%%jJ%%%%%%JjJ%%%%%%Jj%%%
3008A%%j%%%%J%%%j%%%%%%%%%%%%%%%J%%%%%%%%%j%J%%%%%%%%%j%%%%%%%%%%%%%%%J%%%%%jJ%%
2931A%j%%%%%%%%Jj%%%%%%%J%%%%%%%J%j%%%%%%%%%%%%%%j%%%j%%%%J%%j%%J%%j%%%J%%%%%%%%
2855@J%%%%j%j%J%j%J%%%%%%%%%%%%%%%%%%%%%J%j%%%%%%%%J%j%%%%%jJ%%j%%%%%%%JJ%%%%%%%
2779A%%j%%%%%j%%J%%%%%%%%%J%jj%%%%%%%J%j%%%%j%%%J%%%%j%%J%%%J%%%%%%%%%%%%j%j%%%%
2702b%%J%%%%%%%%%%%%%%%j%J%%%%%J%j%%%J%%%%%%%%%J%jJ%j%%%%%%%j%%J%%j%%J%%%%%%%%%%
2626@%%%%%%J%%%%%%%%%%%%%%J%%%%%%j%%%%%%%%%%%%j%%%%J%%%%%%%%%%%%J%%j%%%%%J%j%j%%
2550@%%%%%%%%%%%%%%%J%%j%%%%%%%%%%J%j%%%%%%%%%%%J%j%%%%J%%%%%j%%%%%%Jj%%%%J%%%j%
2473@%%%%J%j%%%%%%%%%%%j%J%%%%%%%%%J%j%%%%%%%%%J%%j%%%j%%%%J%%%%J%jj%%%J%j%%Jj%%
2397a%%J%%jJ%%%%%%J%Jj%%%%%j%%J%j%J%%%%%%%%jJ%%%%j%J%%j%%%%%%%%%%%%J%%%%%%%%j%%%
2321@j%J%%%j%%%%%%%J%%%%j%%%%%%%%%%%%j%%J%%%%%%%%%%%%j%J%j%J%%%%%%J%%%%J%%j%%%%%
2244@%%%%%%j%%%%%J%j%%%j%J%%%J%j%J%%%%%j%%J%%%%%%%%%%%J%%%%j%%j%%J%%%Jj%%%%%%%%%
2168@%%j%%J%%%j%j%J%%J%%%J%%j%%%%%%j%%J%%%%jJ%%%%%%j%%%%%%J%%%%%%%%%%%%%%%%%J%%j
2092@%%%jJ%J%jJ%%j%%%%%%%j%%%%%%J%j%Jj%%J%%j%%%%%%%%%J%%%%%%%%j%J%%%%%%%%%j%JJ%%
2015A%%%j%J%%%%%j%%%%%jJ%%%%%j%JJ%%j%%%j%%J%%%%%%%Jj%%J%J%j%%j%%%J%%%J%%%%%%%%j%
1939A%%%%%%j%%%%%%j%%%%%%J%%%%J%j%%%%%%%%%%%%%%J%%%%%%%%%%%%j%%%%%%%%%%%j%%%%J%%
1863@j%J%%%%%j%J%J%%%%%%j%j%JJ%%%%%%%%%%j%Jj%%Jj%%j%%%J%%%%%%%%%%%%%jJ%%%%j%%%%%
1786aJ%%%%J%%j%J%j%%%%%%%%%%%%%%%j%%%J%%%%%%j%J%%%j%%%%%%J%%%%%%%j%%%J%%%jJ%%%%%
1710@%%j%J%%%%%%%%%%%%%%J%%%j%%%%J%%j%%%%%%j%%J%%j%J%%%%%j%%J%%%j%%%%%J%%%%%%%%%
1634@%%j%%%%J%%J%%%%%%%%%j%%%%%%%%J%%%J%j%%j%%%J%%%%%%%j%%%%jJ%%J%%%%%%%%j%%%%%%
1557@%%%%%%j%%J%%%%J%%%%%%%%%%Jj%%%%%j%J%j%%%%%%%%%%%%%%%%%%%%%%%J%%%%%%j%%j%%J%
1481@%%%%j%%J%j%%%%%%%%%%%%Jj%%%Jj%%J%%%%J%j%%%%j%%%%%j%J%%%%%%%%%%%J%%jJ%%%j%J%
1405@j%%%%%%%%%%J%j%%%%%%%%%%%%%%%%%%%%%%%%%%J%%j%%%%%%%%%J%%%%%J%%%%%%j%J%%%%%%
1328A%%j%%%%%%%%%%%%%%%%%J%J%j%%%%%%%%%j%J%%%%%%%%%%%%%j%%%%%%j%%%J%J%%%%%j%%%%%
1252@%J%%%%%%%%%%j%%JJ%%%j%%%%%%%%j%%%%%%%J%j%j%%J%%%%%J%j%%%J%%%%%%%%%%Jj%%%%%j
1176@%%%%%%%%%%%%%%Jj%%J%%%%%%%%j%%%%%%%J%%j%%%%%%%%%%%%%%%%%%%%%%J%%%%j%%%%%%%J
1099AjJ%j%%%J%j%%%%%J%%%%j%%%%%%%%Jj%%j%J%%%%%%%%%%%%%Jj%%jJ%%%%%jJ%%jJ%%%%%JJ%%
1023B%%%%j%%%%%%%j%%J%%%%j%%%%J%%%%%%%%%%%j%%j%%%%%J%%%%j%JJj%%%%%%%%%%%j%%%%J%j
947aJ%Jj%%%%%%j%%%%J%%%%%%%%%%%j%%J%%%%%%jJ%%%%%%%%%%%%%%jJJ%%%%%%%%%%%%j%%%%%J%
869A%%%j%jJj%%%%%%J%%%%%j%%J%%%%%%%%J%%%j%J%%j%%%%%%j%%%%%%%%%J%j%J%%%%%%%%%%%%%
792@%J%%j%%%J%%%%%%j%%j%%%%%%J%j%%%J%%%%%%%%%J%%%%j%J%%%%j%J%%%%j%%%%%%%%J%%%%j%
715@%%%jJ%%%%j%J%%%%%%%%%%%%%%%%%J%%j%J%%%%%%%JJ%%%%%%J%%J%J%J%%J%J%%%j%j%j%jj%j
637Cj%j%%%Jj%%%%%%%%j%%%%%%%%%%%%j%%%%%%Jj%%%%%%%J%%J%%j%j%%j%J%%%%%J%j%%J%%%%%%
560@%%%j%%%%%%%%J%%%%%%%%%%J%%%%j%j%J%%j%J%%%%%%%%%%%%J%%%%%j%J%%%%%%%j%%%%%%%%%
482@%j%%%%%%%J%%%%%%%%%%%%%%j%%%%Jj%%%j%%%%%J%J%%%%%%%%j%%%%Jj%%%%J%%%%%%%%%%%%%
405@%%%%%%%J%j%%%%%%%%%%%%%%%%%%%%%%%j%J%J%j%%J%%%j%%J%%%%%%%%%%%%%j%J%J%%%%%%%%
328Bj%J%%%%j%%j%%%%%%%%%Jj%jJ%Jj%%%%%%%%%%%%%%%%%%%%%%%%%%j%%%J%%%%%j%%%%%%J%%%%
250@%%%%%%%%%%%%j%%%%%%%%%%%%j%j%%J%%%j%%%%%J%%%J%j%%%%%%%%%%%%%%%J%%J%j%J%%%%jJ
173@j%%%%%%%%J%j%%%j%J%%j%%J%%%%%%%%%%%%%%%%%Jj%%%%%%%%%%J%j%%%%%%%%jJ%J%%%%%%%%
96@%j%%J%%J%%%%%%%%%%J%%Jj%%J%J%%%JjJ%%JJJJJJJKJJKJKLLLMNOONMK%j%j%JKKMNPJ0J2J5
21A18J6J9K2K4K7L2L5M2M7N5O4P4Q6J02J21J42J62J76J76J48Q5kp8j21j34j32j26j18j07r8r1
-10G66q4p6o9o1n3m7m0l5l0k7k4k1j8j6j4j2j0qppnlljjjkmnooonnlmlllllkkjkjkjjj%jjjjj%
-68A4j%%%jj%%%%%jj%%j%%%j%%%%jJj%%%%%%j%%%%J%%j%%%%j%%%j%J%%j%%%%%%%%%%%J%%%%%%j
-145C%%%J%j%j%%%%%j%%J%%%%%%%%%%%jJ%%%%%%%%%j%%j%J%%%%%%%%%%%%%%J%%j%%%j%%%%%J%%
-221A%%%%%%%%%%%%%jJ%%%%%%Jj%%%%%%%%%%%%%%%%j%%%%%%J%%%%%%%%%%j%J%%j%J%%Jj%%%%%%
-297A%%%%%%J%j%%%%%%%%%%jJ%J%%j%J%j%%%%%%%%j%%%J%j%%%%%%%%%%%j%%%%%J%j%%%J%%%%%%
-374@Jj%%%%%%%%%%%%%%jJ%%%%%%%%%%%%%%%%%j%J%%%%j%%j%J%%J%j%%%%%%%%%%%%j%J%%%%%%%
-450a%%%%%%%J%%%j%%J%%%%%%%%%%%Jj%%%%%%%%%%%%%%%%%%%%%%%%%%%%%j%%%%%%%J%j%%%%%%J
-526@%%%%%j%J%%%%%%%j%%%%%%%%%%%%%Jj%Jj%J%%%%%%j%%Jj%%Jj%%J%%%%%%j%J%%%Jj%J%j%%%
-603@%j%%%%%%%J%%%%%%%%%%%%%%%%%j%%J%%%%%%%%%%%%%J%%%%%%%%J%JJJ%J%JJ%Jj%%jj%%%j%
-679Ej%j%%j%%%j%%%j%%%%%%%%%%%%%%%J%j%%%j%JJ%jJ%j%J%%%j%%%%%%%%%J%%%%%%%%%%j%%%%
-755@%%%%%%j%%J%%%%%%%%%%%%%%%%%%%%%%%%%j%%%%J%%%%%%%%%j%J%%%Jj%%%%%%%%%%%%%%%%%
-832@%j%%J%j%%J%%%%%%%J%j%%%%J%j%%%%%%%%%%%%%%%%%%%%%%%%J%%jJ%%%%%%%%%%%%%%%%%j%
-908@%Jj%%%%%%%%%%J%%j%%%%%%%%J%%%%j%j%%J%%%%%%%%%%J%%%%%%%%%%j%%%%%%%%%%%%%jj%%
-984bJ%%%%J%%%J%%j%%%%%%%%%%%%%J%j%%%%J%%%j%j%J%%%%%%%%%%%j%jJ%%%Jj%%%%%%%%%%%%%
-1061a%%%JJ%j%j%j%J%J%%%%%%%%%%%%%%%%%%%j%%%J%%%%%%%%J%%%%%j%%%%%J%jJ%%%%j%%J%%%
-1136A%%j%%%%%%%%%j%%%%J%J%j%J%%%%%%j%%j%%%%%%J%J%%%%%%j%%%J%%%jJ%%%%%%j%%%%%%%J
-1211A%%%jJ%%%%j%%%%%Jj%%%%%%%%j%J%%%%%%%%%%%%%%%%%%%%%%%%%j%J%J%%j%J%%%%%%%%%%j
-1287@%%%%j%%J%J%%%%%%%%%%%%%%%J%%j%%%j%%%%%%%%%j%JJj%%%%%%%%%%%%%%%%%%%%%%%j%%%
-1362a%J%%j%J%%%j%%%%J%%%%%%%j%%Jj%J%%%%%%%%j%%J%%%%%%%jJj%%%%Jj%%%%%J%%%%%%%%%%
-1437@%%j%%J%%%%%%%%%%%j%J%%%%%%%%%%%%%%%%%%j%%%%J%j%%%J%%%%%J%%%j%%%%Jj%%Jj%%%%
-1513@%%%%%%Jj%%J%%%%%%%j%%%%%%J%%%%j%%%%%%%%%%%%%%%%%%J%%%j%%%j%%%%%J%%%%%%%%%%
-1588@%%j%%%J%j%J%J%%%%%%%%%%%%j%%%%%J%j%%%%%%%%%j%J%%J%%jj%%J%%%j%J%%%Jj%J%%%j%
-1663@%%%%%%%%J%j%%%jJ%%%j%J%j%j%%%%J%%%%%JjJ%j%%%%%%J%%j%J%%%J%%j%%j%%jJ%%J%%%%
-1739@%%%%%%jJ%%%%%%%J%%%%j%%%%%%JjJ%j%j%J%%%%%%%%%%Jj%%%%%%%%%%%%%%%%%%%%%%%%Jj
-1814@j%%%%J%%%%Jj%%%%%%%%%%%%%%%j%%%%%%%%%%%J%%Jj%%%%%%j%%JjJ%%%%%j%%%%%%%J%%j%
-1889a%%%J%%%%j%%%%J%%%%%j%%J%%J%%%%%j%%J%%j%%%%%J%%%%j%%%%J%%%%%%%%j%%Jj%j%%%J%
-1964@%J%%%%%j%%%%%J%j%%%%%%J%j%%%jJ%%%%%%%%%%%%%%%Jj%%%%j%%%%J%%%J%%%%%j%j%%%%%
-2040aJj%J%%%j%%%%%%%%%J%%%j%%%%J%%%%%%%Jj%%J%%%%%%%%%%%%%j%%%%%%%%%j%J%%%%%%%%%
-2115@jJ%%J%%%j%%Jj%%%%%%%%%%%%%%%%j%%J%%%%%%%%%%%%%%Jj%%%%%%%%%%Jj%%%%%%j%%%%%%
-2190a%jJ%J%%%%%J%%%j%%%%%%%%%%%j%%J%%%%%%%j%%%%%%%J%%%%%%%%%%%J%%j%%%%%%%%%%%%%
-2266@%%%%%%%%%%%J%j%%j%%J%%%%%%%%%%%%%%%%%%%J%%%%%%%%%%%Jjj%%%%%%J%%%%%%%%j%%%%
-2341@%%jJ%%%J%j%%jJ%%%J%j%%%%%%%%%%j%J%%%%%%%%%%%%%j%%J%%%j%J%%%%%j%J%%%%%%jJ%%
-2416@%%%%%j%%%J%%%%%%%%%j%%J%Jj%%%%%%%%%%%%%%%%J%j%%j%%JJ%%%%%j%%%%j%J%%jJJ%%j%
-2492@%J%%%%%J%j%%j%%%%%%%%%%%%%J%%%j%%%%j%%%J%jJ%%%%%%%%%%%%%%%%%%%%%j%%J%%J%j%
-2567@%%%%Jj%%J%%jJ%%j%%%%%%%%%%%%J%j%j%%J%%%jJ%%Jj%%%%%%%j%%%%%%%%J%%%j%%%%J%%%
-2642@%%J%%j%%%%%%%%j%%%J%%%%%jJ%jJ%%j%%%%J%%%%%%%J%j%J%%%%jjJ%J%%j%%%%%%J%%j%%%
-2718@%%%%%%%%%J%j%%%%%%%j%J%%%%%j%%%%J%J%%j%%%%%%%%%%%%j%%%%%J%%%%%jJ%%%%J%%%%%
-2793A%%%j%J%%%%%%%%%j%%%J%j%%%J%%%%%%%%jJj%%%%%%%%j%%J%%%%%%%J%%%%%jJj%%%%%j%J%
-2868@%j%%%%J%%j%%%%%%j%%JJ%%j%%J%%%%jJ%%%%%%%%%%jJ%jJ%J%%%%%%%%%%j%j%%J%%%%%%%%
-2944@%j%%J%J%j%%%%%j%%%%%%%%%%J%J%%%j%%j%%%J%%%%%j%%%%%%J%j%%%%J%%%%%jJ%%%%j%%J
-3019@%%%%%%%%%%%%%%j%%%%J%%%%%%%J%%%j%%%J%j%%%%J%%%%%%j%%%j%J%%%%%%%%%%%%%%jJ%%
-3094@%%%%%%%j%%%J%%%%j%J%%%%%%%jJ%%%%J%%%%j%%J%%jj%%J%J%%%%j%j%J%%J%%%%%%j%%%%%
-3170@%J%%%%j%%%%%%%%%%%%%%%%%%%%%J%%%j%J%%j%%%%j%%%J%%%Jj%%%j%%J%j%%%J%%%%j%J%j
-3245a%%%%%J%%%%%%jJ%J%%%%j%j%%%%%%J%%%%j%%%%%%%J%%j%%%%%J%%%%%j%%%%%%%%jJ%j%J%%
-3320a%%j%J%%%%J%%j%%%%%%%%%j%%J%%%%J%%%%%%%%%%%%%J%%j%jJ%%%%%%%%%%%J%%j%%%%J%%%
-3396A%jJ%J%%j%J%j%%j%%%%%%%%J%%j%%%J%%j%%%%%%%%J%j%%%%%%%%%%%%%%%J%%%%%%%%%%%j%
-3471@%%%J%j%%%%%J%%%%%%%%%j%Jj%%JJ%j%%%%%%j%%%Jj%%J%%%%%%J%%j%%%%%%%j%%%%J%%%%%
-3546A%%j%%%%%%%j%%%J%%%J%%%j%%%%%%%%%%%%%%%%%%%%%%%%%jJ%Jj%%%%%%%%%%%%%%%%%%%%%
-3622@jJ%%%%%j%%Jj%%%%J%%%j%%%%%%%%%%%%%%%J%%%%%%%%%j%%%J%J%%%j%%%%%%%%%%j%%J%%j
-3697a%%%Jj%%%J%%%%%%%%%j%%J%%%%%%%%%J%jJ%%%%j%%%%J%%%%%j%J%%%%J%j%%%%%%%%%%%%j%
-3772@%%%%%%J%%j%jJ%J%%j%j%%%%%%%J%%%%j%%%%%%%%%%%J%%%%%%%%%%%%%%%%%%%%%%%%%%%%%
-3848@%%%%%%%%%%J%j%%J%j%%j%J%%%%%%j%%%%%%%%%%J%%%%j%%J%%%%%%%j%%%%%%%J%%j%%%%%%
-3923a%J%%j%%%J%%%%%%%%%%%%%%%J%j%%%%%%%%%%%Jj%%%%%%%%%%%%%%%%J%Jj%%j%%%%%%%%%J%
-3998A%%%%j%%%%%%J%%j%%%%%%%%%j%%J%%j%%J%%J%%%j%j%J%%J%%%%%%j%%%jJ%%%%%%%%J%j%%%
-4073@%%%%%%%%j%J%%%j%%Jj%%%J%%%j%%%%J%%%j%%%J%%%%%%%%%%%%%%J%%%%%%j%j%%%J%%Jj%%
-4149@J%%j%%J%j%%%%%%j%J%%%%j%%%%%J%%j%%%%%%%%%%%%%%j%J%J%%%%j%%%%%%%j%%%%J%%%%%
-4224a%%jJ%J%%jJ%%%%%%%J%%%%%%%j%%%%%%J%j%J%j%%%%J%%%%%j%%%%J%%%%%%j%%%%%%j%%J%%
-4299@%%%%%%%%J%j%J%%%%%%j%%%%j%%J%J%%%%%%j%j%J%jJ%Jj%jJ%%%%%%%%%%%%%%%%%%%%%%%%
-4375@jJ%%%%%%J%%Jj%%%%%%%%%%J%%j%%j%%%%%%%J%%%%%%j%%%%%%%%%%%%%%%%J%%j%J%%%%j%%
-4450@%%%%%%%%%%%%%%jJ%%%%%%%%%%%%%%J%%%j%%%%%%%%%%%%%%%%%%%%%%%%%%%%j%%J%%%%%Jj
-4525@%%%Jj%%%%%%%%j%J%%%%%%%%%%j%%Jj%%%%%J%%%%%Jj%%%%%%%%%%%%%%j%%J%%%j%%%%J%%%
-4601@%%J%%j%%%%%%%%%%j%%%%%%%%%%J%%%%J%%%j%%%%%%%%%%%%%%%%%%%j%%J%%%jjJ%%%%%%%%
-4676a%J%%j%%%%J%jJ%%%%%%%%%%%%Jj%%%%%%%%%%J%%%%%%%%%%%jJ%%%%%j%%%%%%%%%%j%%%%%%
-4751a%J%j%%J%%%%%%%%%%J%%j%j%%%J%%%J%%j%%J%%%%%%j%%J%%%j%%%%%%%%%J%%%%%%%%%%%%%
-4827Aj%%%%%j%%%%%%%JjJ%%%%%%j%%%JJ%%%%jJ%%j%%jJ%j%%%%%J%%%%%%J%%j%%%%%%%%%J%%%j
-4902@%J%j%%j%%%%J%%%%%%%%%%%%%%%jJ%%%J%J%%j%j%%J%%%%%j%%%%%%%%J%%j%%%Jj%j%%J%%%
-4977@%%%%%%%%%%%%%j%%%%%%%%%%J%%%%%%jJ%%%%J%j%%%%%%%J%j%%%%%%%%J%%%%%%%%%%j%%%%
-5053@%%%%%%jJ%%%%%%j%%%%%%%%%%%%%%%%%%J%j%%%J%%%j%%%%J%%%%Jj%%%J%%%j%%%%J%%j%%%
-5128@%%%j%%%%J%%%%j%%%J%%%%%%%%%%%%%%J%j%%J%%j%j%%%%%%J%%j%JJ%%%%j%%%j%%%%%J%j%
-5203a%%J%%%%%%%J%%%%j%%%%j%J%j%%%J%%%%%jJ%%%%%%%%%jJ%%J%%%%J%j%%%%j%%%j%%J%j%%%
-5279a%%%%%J%%%j%%%J%%%%%%%%%%%%%%%%%%J%%%%%j%%j%JjJ%%%%J%%J%j%%jJ%%%J%%j%j%%%%%
-5354@%%%%%Jj%%%%%%%%%%%jJj%%J%%%%j%J%%%%%%%%%%%%%%%%%%%%j%%%J%%%%%%%jJ%%%%j%%%%
-5429aJ%%%%%%J%%%%%%j%%%Jj%%j%%%%%J%j%%%%J%%%%%%%%j%%%Jj%%%%J%%%%%%%%%%%j%%%%%%J
-5505@%%%j%%J%%%%j%%%%%J%%%j%J%%%%%%J%%%j%%%%%%J%j%J%%%%%%%%%%%%j%%%%%j%J%%%%%%%
-5580@%%%Jj%%%%%%%%%j%%%%%J%%%%%%j%%%%%%%%%J%J%j%%%j%%%%%%J%%%%%%%%jJ%%%%%%%%%%%
-5655@J%%%%%%j%%%%J%%j%j%JJ%%%%jJ%j%%%J%%%j%%j%%%%%J%%%%%%J%%%%j%%j%%%JjJ%%%%%%%
-5731@%%j%%%%%%%J%%%%%%J%j%%%%jj%J%%%%%%J%%%%%%%%J%j%%%%%%%%j%%J%%%%%%%J%%j%%%%%
-5806@Jj%%%%J%%%%j%%Jj%%%%%J%%j%%%%%%%%Jj%%%J%%%j%j%J%%%JJ%j%%%%%%j%%%%%%%%J%%%%
-5881A%%%j%%%%j%%J%%%%%%%%%%%%%%%%%j%J%%%j%%%J%%Jj%%%%%%%j%%J%%%%%%%%J%j%%%J%%j%
-5957@%%J%j%J%j%%%%j%%%%%%J%J%%%j%%%%%%%%%%%%%%%%jJ%%%%%%%%%%%%%%%%%%%%Jj%J%%j%%
-6032@%%%%%%%%%%%%%%%%%%J%j%%%%%%%%%%%%j%%%J%%%%%%%%%j%%%%J%%%%%%%%%%%%%%%%%jJ%%
-6107@j%%%%J%%%%%%%%j%%JJ%j%%%jJ%%j%%J%%%%%%%j%%%J%j%%%%J%%%%%%%%j%%J%%%%%%j%%J%
-6182@%%%j%%%J%%%%%%%%%%%%J%%j%J%%%j%%%%J%%%%%Jj%%%j%%%%%%%J%%j%Jj%%%%%J%%%%%%%%
-6258Aj%J%%%%%%j%%J%J%%j%%%%%%%%%%%%%%%j%J%%%j%%j%%%%%%%J%%%%%%j%J%%%%%%%%j%%J%%
-6333@%%%%%%%%%%%%%%%%%%%%%%%%%%%%J%%j%%%j%%J%%%J%%%%j%%%%%%%J%%%%%j%%%%J%%j%J%%
-6408A%%%%%j%%%%%%j%%%%%J%%j%%%J%%%%%%%%%j%%J%%%%%%%%%%%%%%%J%%j%%%%%J%j%%J%%%%%
-6484A%%%%%%%%%%%%%j%%J%j%%%%%%j%%%%J%%%%%j%%%%%%J%%%j%J%%%%%%%%%%%%%J%j%%j%%%J%
-6559@%%%%%%%J%j%%%J%j%j%JJ%%j%%%%%%%%%%%%%%j%J%%%%%j%%%J%%j%%%J%%%%%%%j%J%j%%%%
-6634a%%%%%J%%%J%%%%j%%Jj%%%%%%%%J%%%j%Jj%%%%%%%%%%%%j%%J%j%%%%%J%%%%Jj%%
-6703@ $$ checkpoint
##END=
##TITLE=Peak list
##JCAMP-DX=5.01
##ORIGIN=UNKNOWN
##OWNER=UNKNOWN
##DATA TYPE=NMR PEAK TABLE
##DATA CLASS=PEAK TABLE
##BLOCK_ID=3
##CROSS REFERENCE=NMR SPECTRUM:BLOCK_ID=2
##DATE=22/03/03
##TIME=15:04:07
##TEMPERATURE=25
##LONG DATE=2022/03/03 15:04:07 
##.OBSERVE FREQUENCY=500
##.OBSERVE NUCLEUS=1H
##.SOLVENT NAME=H2O
##NPOINTS=16
##XUNITS=PPM
##YUNITS=ARBITRARY UNITS
##PEAK TABLE=(XY..XY)
(2.67, 7286870766.000001)
(2.64, 10637817973.500002)
(2.67, 7286870766.000001)
(2.64, 10637817973.500002)
(2.67, 7286870766.000001)
(2.64, 10637817973.500002)
(2.67, 7286870766.000001)
(2.64, 10637817973.500002)
(2.54, 11515282500.0)
(2.51, 6661590926.250001)
(2.54, 11515282500.0)
(2.51, 6661590926.250001)
(2.54, 11515282500.0)
(2.51, 6661590926.250001)
(2.54, 11515282500.0)
(2.51, 6661590926.250001)
##END=
##TITLE=Assignments
##JCAMP-DX=5.01
##ORIGIN=UNKNOWN
##OWNER=UNKNOWN
##DATA TYPE=NMR PEAK ASSIGNMENTS
##DATA CLASS=PEAK ASSIGNMENTS
##BLOCK_ID=4
##CROSS REFERENCE=STRUCTURE:BLOCK_ID=1
##DATE=22/03/03
##TIME=15:04:07
##SAMPLE DESCRIPTION=Citric acid
##TEMPERATURE=25
##LONG DATE=2022/03/03 15:04:07 
##SOURCE REFERENCE=HMDB0000094
##.OBSERVE FREQUENCY=500
##.OBSERVE NUCLEUS=1H
##.SOLVENT NAME=H2O
##NPOINTS=16
##XUNITS=PPM
##PEAK ASSIGNMENTS=(XMA)
(2.65, <d>, <18>)
(2.65, <d>, <18>)
(2.65, <d>, <19>)
(2.65, <d>, <19>)
(2.65, <d>, <18>)
(2.65, <d>, <18>)
(2.65, <d>, <19>)
(2.65, <d>, <19>)
(2.53, <d>, <15>)
(2.53, <d>, <15>)
(2.53, <d>, <16>)
(2.53, <d>, <16>)
(2.53, <d>, <15>)
(2.53, <d>, <15>)
(2.53, <d>, <16>)
(2.53, <d>, <16>)
##END=
##END=
