##TITLE=HMDB0000687, Experimental spectrum with assignments
##JCAMP-DX=4.24
##ORIGIN=UNKNOWN
##OWNER=UNKNOWN
##DATA TYPE=LINK
##DATE=22/03/03
##TIME=15:06:30
##LONG DATE=2022/03/03 15:06:30 
##TITLE=L-leucine
##JCAMP-CS=3.7
##ORIGIN=UNKNOWN
##OWNER=UNKNOWN
##DATE=22/03/03
##TIME=15:06:30
##BLOCK_ID=1
##CROSS REFERENCE=NMR PEAK ASSIGNMENTS:BLOCK_ID=4
##LONG DATE=2022/03/03 15:06:30 
##MOLFORM=C6 H13 N O2
##ATOMLIST=
1 C 0
2 C 0
3 C 0
4 C 0
5 C 0
6 N 0
7 C 0
8 O 0
9 O 0
10 H 0
11 H 0
12 H 0
13 H 0
14 H 0
15 H 0
16 H 0
17 H 0
18 H 0
19 H 0
20 H 0
21 H 0
22 H 0
##BONDLIST=
1 2 S
2 3 S
2 4 S
4 5 S
5 6 S
5 7 S
7 8 D
7 9 S
1 10 S
1 11 S
1 12 S
2 13 S
3 14 S
3 15 S
3 16 S
4 17 S
4 18 S
5 19 S
6 20 S
6 21 S
9 22 S
##STEREOCENTER=
5 M 0
##$MOLFILE=
     RDKit          3D

 22 21  0  0  0  0  0  0  0  0999 V2000
   -1.7707    0.8187    0.9546 C   0  0  0  0  0  0  0  0  0  0  0  0
   -1.2818    0.1870   -0.3144 C   0  0  2  0  0  0  0  0  0  0  0  0
   -2.3231   -0.8207   -0.7733 C   0  0  0  0  0  0  0  0  0  0  0  0
    0.0110   -0.5486   -0.1612 C   0  0  0  0  0  0  0  0  0  0  0  0
    1.1560    0.2880    0.2978 C   0  0  2  0  0  0  0  0  0  0  0  0
    1.4941    1.3758   -0.5580 N   0  0  0  0  0  0  0  0  0  0  0  0
    2.3423   -0.5944    0.4513 C   0  0  0  0  0  0  0  0  0  0  0  0
    2.2945   -1.6456    1.1750 O   0  0  0  0  0  0  0  0  0  0  0  0
    3.5296   -0.3040   -0.1833 O   0  0  0  0  0  0  0  0  0  0  0  0
   -2.8846    0.8650    0.9529 H   0  0  0  0  0  0  0  0  0  0  0  0
   -1.4032    1.8619    0.9969 H   0  0  0  0  0  0  0  0  0  0  0  0
   -1.4760    0.2281    1.8211 H   0  0  0  0  0  0  0  0  0  0  0  0
   -1.2173    0.9676   -1.0858 H   0  0  0  0  0  0  0  0  0  0  0  0
   -1.8673   -1.7965   -1.0411 H   0  0  0  0  0  0  0  0  0  0  0  0
   -2.8587   -0.4781   -1.6883 H   0  0  0  0  0  0  0  0  0  0  0  0
   -3.0398   -1.0312    0.0460 H   0  0  0  0  0  0  0  0  0  0  0  0
   -0.1067   -1.3916    0.5447 H   0  0  0  0  0  0  0  0  0  0  0  0
    0.2658   -0.9887   -1.1472 H   0  0  0  0  0  0  0  0  0  0  0  0
    0.8924    0.7099    1.2991 H   0  0  0  0  0  0  0  0  0  0  0  0
    1.4120    1.1962   -1.5623 H   0  0  0  0  0  0  0  0  0  0  0  0
    2.4471    1.7139   -0.2900 H   0  0  0  0  0  0  0  0  0  0  0  0
    4.3844   -0.6128    0.2654 H   0  0  0  0  0  0  0  0  0  0  0  0
  1  2  1  0
  2  3  1  0
  2  4  1  0
  4  5  1  0
  5  6  1  0
  5  7  1  0
  7  8  2  0
  7  9  1  0
  1 10  1  0
  1 11  1  0
  1 12  1  0
  2 13  1  6
  3 14  1  0
  3 15  1  0
  3 16  1  0
  4 17  1  0
  4 18  1  0
  5 19  1  1
  6 20  1  0
  6 21  1  0
  9 22  1  0
M  END

##END=
##TITLE=Spectrum
##JCAMP-DX=5.01
##ORIGIN=UNKNOWN
##OWNER=UNKNOWN
##DATA TYPE=NMR SPECTRUM
##BLOCK_ID=2
##CROSS REFERENCE=NMR PEAK TABLE:BLOCK_ID=3
##DATE=22/03/03
##TIME=15:06:30
##TEMPERATURE=25
##LONG DATE=2022/03/03 15:06:30 
##.OBSERVE FREQUENCY=500
##.OBSERVE NUCLEUS=1H
##.SOLVENT NAME=H2O
##.SHIFT REFERENCE=INTERNAL,DSS,58957.00,0
##XUNITS=PPM
##FIRSTX=10.8018
##LASTX=-1.205188
##MINX=-1.205188
##MAXX=10.8018
##XFACTOR=0.00018000000000029104
##NPOINTS=65536
##YUNITS=ARBITRARY UNITS
##FIRSTY=-309162.5
##LASTY=-793326.4
##MINY=-39504810.0
##MAXY=76322610000.0
##YFACTOR=2329252.2965178383
##XYDATA=(X++(Y..Y)), XYDATA $$ DIF
60010@%%j%J%%%%%%%%%%%%Jj%%%%%%%%%%j%%%J%%%%%%Jj%%%%%%%%%%%%%%%%%%%%%%%%J%j%%%%%
59935@%%%%%%%%%%%%%%%%%%%%%%%%%%%%%%%%%%%%%%%%%%%%%%%%%%%%%%%%%%%%%%%%%%%J%%%%jJ
59859A%%%%j%%%%%%%%%%%%%%%%%%%%%jJ%j%J%%%%%%%%%%%%j%%J%%%%%%%%%%%%%%%%%%%%%J%j%%
59784@%%%%%%%%%%%%%%%%%%%%%%%%%%%%%%%%%%%%%%%%%%%%%%%%%%%%%%%%%%Jj%%%%J%%%j%%%%%
59709@%%%%%%j%J%%%%%%%%%%%%%%%%%%%%%%%%%%%%%%%%%%%%%%%%%%J%%j%%%%%J%j%%%%%%J%%%%
59633A%j%%%%%%%%%%%%%%%%%%%%%%%%%%%%%%%%%%%%%%%%%%%%%%%%%%%%%%%%%%%%%%%%%%%%%%%%
59558@%%%%%%%%%%%%%%%%%%%%%j%J%%%%%%%%%%%%%%%%%%%%%%%%%%%%%%%%%%%%%%%%%%%%%J%j%%
59483@%%%%%j%%J%%%%%%%%%%%%%%%%%%%%%%%%%%%%%%%%%%%%%%%%%%%%%%%%%%%%%%%%%%%%%%%%%
59407@%%%%%%%%%%%%%%%%%%%%%%%%%%%%%%%%%%%%%%%%%%%%%%%%%%%%%%%%%%%%%%%%%%%%%%%%%%
59332@%%%%%%%%%%%%%%%%%%%%%%%%%%%%%%%%%%%%%%%%%%%%%%%%%%%%%%%%%%%%%%%%%%%%%%%%%%
59257@%%%%%%%%%%%%%%%%%%%%%%Jj%%%%%%%%%%%%%%%%%%%%j%J%%%%Jj%%J%j%%%%%%%%%%%%%%%%
59181@%%%%%%%%%%%%%%%%%%%%%%%%%%%%%%%%%%%%%%%%%%%%%%%%%%%%%%%%%%%%%%%%%%%%%%%%%%
59106@%%%%%%%%%%jJ%%%%%%%%%%%%%%%%%%%%%%%%%%%%%%%%%%%%%%%%%%%%%%%%%%%%%%%%%%%%%%
59031@%%%%%%%%%%%%%%%%%%%%%%%%%%%%%%%%%%J%%%j%%%%%%%%%%%%%%%%%%%%%%%%%%%%%%%%%%J
58955A%%j%%%%j%%J%%%%%%%%%%%%%%%%%%%%%%%%%%%%%%%%%%%j%%%J%%%%j%J%%%%%%%Jj%%%%%%%
58880@%%%%%%%%%%%%%%%%%%%%%%%%%%%%%%%%%%%%%%%%%%%%%%%%%%%%%%%%%%%%Jj%%%%%%%%%%J%
58805A%%j%%%%%%%%%%%%%%%%%%%%%%%%%%%%%%%%%%J%j%%%%%%%%%%%%%%%%%%%%%%%%%%%%%%%%%%
58730@%%%%%%%%%%%%%%%%%%%%%%%jJ%%%%%%%%%%%%%%%%%%%%%%%%%%j%%J%%%%%%%%%%%%%%J%j%%
58654@%%%%%%%%%%J%j%%%%%%%J%j%%%%%%%%%%%%%%%%%%%%%%%%%%%%%%%%j%J%%%%%%%%%%%%%Jj%
58579@%%%%%%%%%%%J%%j%%%%%%%%%%%%%%%%%%%%%%%%%%j%%J%j%J%%%%%%%%%%%%%%%%%%%%jJ%%%
58504@%%%%%%%%%%%%%%%%Jj%%%%%%J%j%%%%%%%%%%%%%%%%%%%%%%%%%%%%%%%%%%%%%%%%%%%%%j%
58428aJ%%%%%%%%%%%%%%%%%%%%%%%%%%%%%%%%%Jj%%%J%%j%%%%%%%%%%%%%%%%%%%%%%%%%%%%%%%
58353@%Jj%%%%%%%%%%%%%%%%%%%%%%%%%%%%%%%%%%%%%%%J%%%%%j%%%%%%%%%%%%%%%%%j%%%J%%%
58278@%%%%%%%%%%%%%%%%%%%%%%%%%%%%%%%%%%%%%%%%%%%%%%%%%%%%%%%%%%%%%%%%%%%%%%%%%%
58202@%%%%%J%j%%%%J%j%%%%%%%jJ%%%%%%%%%%jJ%%%%%%%%%%%%%%%%%%%%%%%%%%%%%%%%%%%%%%
58127@%%%%%%%%%%%%%%%%%%%%%%%%%%%%%%%%%%%%%Jj%%%%%%%%%%%%%%%%%%%%%%%%%%%%%%%%%%%
58052@%%%%%%%%%%%%%%%%%%%%%%%%%%%%%%jJ%%%%%%%%%%%%%%%%%%%%%%%%%%%%%%%%%%%%%%%%%%
57976@%%%%%%%%%J%%j%%%%%%%%%%%%%%%%%%%%%%%%%%%%%%%%%%%%%%%%%%%%%%%%%%%%%%%%%%%%%
57901@%%%%%%%%%%%j%J%j%J%%%%%%%%%%%%%%%%%%%%%%%%%%%%J%j%%%%%%%%%%J%%%j%%%%%%%%%%
57826@%%%%%%j%%J%%%j%%J%%%%%%j%J%%%%%%%%%%%%%%%%%%%%%%%J%%j%%%%%%%%%%%%%%%%%%%%%
57750@%%%%%%%%%%%%%%%%%%%%%%%%%%%%%%%%%%%%%%%%%%%%%%%%%j%J%%%%%%%%%%%%%%%%%%%%%%
57675@%%%%%%%%%%%%%%%%%%%%%%%%%%%%%%%%%%%%%%%%%%%%%%%%%%%%%%%%%%%%%%%%%%%%%%%%%%
57600@%%%%%%%%%%%Jj%%%%%%%%%%%%%%%%%%%%%%%%%%%%%%%%%%%%%%%%%%%%%%%%jJ%%%%%%%%%%%
57524@%%%%%%%%%%%%%%%%%%%%%%%%%%%%%%%%%%%%%%%%%%%%%%%%%%%%%%%%%%%%%%%%%%%%%%%%%%
57449@%%%%%%%%%%%%%%%%%%%jJ%%%%%%%%%%%%%%%%%%%%%%%%%%%%%%%%%%%%%%%%%%%%%%%%%%%%%
57374@%%%%%%%%%%%%%%%%%%%%%%%%%J%j%%%%%%%%%%%J%%j%%%%%%%%%%%%%%jJ%%%%%%%%%%%%%%%
57298@%%%%%%%%%%%%%%%%%%%%%%%%%%%%%%%%%%%%%%%%%%%%%%%%%%%%%%%%%%jJ%j%J%%%%%%%%%%
57223@%%%%j%J%%%%%%%%%%%%%%%%%%%%%%%%%%%%%%%%%%%%%%%%%%%%%%%%j%%%J%%%%%%%%%%%%%%
57148@%%%Jj%%%%%%%%%%%%%%%%%%%%%%%%%%%%%%%%%%%%%%%j%J%%%%%%%%%j%J%%%%j%J%%%%%j%%
57072a%%%%%J%%%%%%%%%%%%%%%%%%%%%%%%%%%%%%%%j%%%%J%%%%%%%%%%%%%jJ%%%%%%%%%%%%%%%
56997@%%%%%%%%%%%%%%%%%%%%%%%%jJ%%%%%%%%%%%%%%%%%%%%%%%%%%%%%%%%%%%%%%%%%%%%%%%%
56922@%%%%%%%%%%%%J%j%%%%%%%%%%%%%%%%%%%%%%jJ%%%%%%%%%%%%%%%%%%%%%%%%%%%%%%%%%%%
56846@%%%%%%%J%j%%%%%%%%%%%Jj%%%%%%%%%%%%%%%%%%%%%%%%%%%%%%%%%%%%J%j%%%%%%%%%%%%
56771@%%%jJ%%%%%%%%%%%%%%%%%%%%%%%%%%%%%%%%%%%%%%%%%%%%%%%%%%%%%%%%%%%j%%%J%%%%%
56696@%%%%%%%%%%Jj%%%%%%%%%%%%%%%%%%%%%%%%%%%%%%%%%%%%%%%%%%%%%%%%%%%%%%%%%%%%%J
56621Aj%%%%%%%%%%%%%%%%%%%%%%%%%%%%%%%%jJ%%%%%%%%%%%%%%%%%%%%%%%%%%%%%%%%%%%%%%%
56545@%%%%%%%%%%jJ%%%%%%%%%%%%%%%%%%%%%%%%%%%%%%%%%%%%%J%j%%%%%%%%%%%%%%%%%%%%%%
56470@%%%%%%%%%%%%%j%%%J%%%%%%%%%%%%%%%%%%%%%%%%%%%%%%%%%%%%%%%%%%%%%%%J%j%%%%%%
56395@%%%%%%%%%%%%%%%%%%%%%%%%%%%%%%%%%%%%%%%%%%%%%%%%%%%%%%%%%%%%%%%%%%%%%%%%%%
56319@%%%%%%%%%%%%%%%%%%%%%%%%%%%%%%%%%%%%%%%%%%%%%%%%%%%%%j%J%%%%%%%%%%%%%%%%%%
56244@jJ%%%%%%%%%%%%%Jj%%%%%%%%%%%%%%%%%%%%%%%%%%%%%%%%%%%%%%%%%%%%%%%%%%%%Jj%%%
56169@J%%j%%%%%%%%%%%%%%%%%%%%%%%%%%%%%%%%J%%%%%j%%%%%%%%%%%%%%%%%%%%%%%%%%%%%%%
56093@%%%%%%%%%%%%%%%%%%%%%%%%%%%%%%%%%%%%%%%%%%%%%%%%%%%%%%%%%%%%%%%%%%%%%%%%%%
56018@%%%%%%%%%%%%%%%%%%%%%%%%%%J%%j%%%%%%%%%%%%%%%%%%%%%%%%%%%%%%%%%%%%%%%%%%%%
55943@%%%%%%%%%%%%%%%%%%%%%%%%%%%%%%%%%%%%%%%%%%%%%%%%%%%%%%%%%%%%%%%%%%%%%%%%%%
55867@%j%J%%%%%%%%%%%%%%%%%%%%%%%%%%%%%%%%%%J%%j%%J%%%j%%%%%%%%%%%%%%%%%%%%%%%%%
55792@%%%%J%%%%%%%%j%%%%%%%%%%%%%%%%%%%%%%%%%%%%%%%%J%%%%j%%%%%%%%%%%%%%%%%%%%%%
55717@%%%%%%%%%%%%%%%%%%%%%%%%%%%%%%%%%%%%%%%%%%%%%%%%%%%%%%%%%%%%%%%%%%%%%%%jJ%
55641@%%%%%%%%%%%%%%%%%%%%%%%%%%%%%%%%%%%%%%%%%%%%%%%%%%%%%%%%%%%%%%%%%%%%%%%%%%
55566@%%%%%%%%%%%%%%%%%%%%%%%%%%%%%%%%%%%%%%%%%%%%%%%%%%%%%%%%%%%%%%%%%%%%%%%%%%
55491@%%%%%%%%%%%%%%%%%%%%%%%%%%%%%%%%%%%%%%%%%%%%%%%%J%%%j%%%%%%%%%%%%%%%%%%%j%
55415aJ%%%%%%%%%%%%%%%%%%%%j%%%J%%%%%%%%%j%%J%%%%%%%%%%%%%%%%%%%%%%%%%%%%%%%%%%%
55340@%%%%%%%%%j%J%%%%%%%%%%%%%%%%%%%%%%%%%%%%%%%%%%%%%%%%%%%%%%%%%%%%%%%%%%%%%%
55265@%%%%%%Jj%%%%%%%jJ%%%%%%%%%%%%%%%%%%%%%%%%%%%j%%%J%%%%%%%%%%%%%%%%%%%%%%%%%
55189@%%%%%%%%%%%%%%%%%%%%%%%%%%%%%%%%%%%%%%%%%%%%%%%%%jJ%%%%j%%J%%%%%%%%%%%%%%%
55114@%%%%%%%%%%%%%%%%%%%%%%%%%%%%%%%%%%%%%%%%%%%%%%%%%%%%%%%%%%%%%%%%%%%%%%%%%%
55039@%%%%%%%%%%%%%%%%%%%%%%%%%%%%%%%%%%%%%j%%%J%%%%%%%%%%%%%%%%%%%%%%%%%%%%%%%%
54963@%%%%%%%%%%%%%%%%%%%%%%%%%%%%%%%%%%%%%%%%%%%%%%%%%%%%%%%%%%%%%%%%%%%%%%%%%%
54888@%%%j%J%%%%%%%%%%%%%%%%%%%%%%%%%%%%%%%%%%%%j%%J%%%%%%%%%%%%%%%%%%%%%%%%%%%%
54813@%%%%%%%jJ%%%%%%%%%%%%%%%%%%%%%%%%%%%%%%%%%%%%%%%%%%%%%%%%%%%%%%%%%%%%%%%%%
54737@%%%%%%j%%J%%%%Jj%%%%%%%%%%%%%%%%%%%%%%%%%%%%%%%%%%%%%%%%%%%%%%%%%%%%%%%%%%
54662@%%%%%%%%%%%%%%%%%%%%%%%%%%%%%%%%%%%%%%%%%%%%%%%%%%%%%%%%%%%%%%%%%%%%%%%%%%
54587@%%%%%%%%%%%%%%%%%%%%%%%%%%%%%%%%%jJ%%%%%%jJ%%%%%%%%%%%%%%%%%%%%%%%%%%%%%%%
54512@%%%%%%%%%%%%%%%%%%%%%%%%%%%Jj%%%J%%j%%%%%%%%%Jj%%%%%%%%%%%%%%%%%%%%%%%%%%%
54436@%%%%%%%%%%%%%%%%%%%%%%%%%%%%%%%%%%%%%%%%%%%%%%%%%%%%%%%%%%%%%%%%%%%%%%%%%%
54361@%%%%%%%%%%%%%%%%%%%%%%%%%%%%%%%%%%%%%%%%%Jj%%%%%%%%%%%%%%%%%%J%%%j%%%%%%%%
54286@%%%%%%%%%%%%%%%%%%%%%%%%%%%%%%%%%%%%%%%%%%%%%%%%%%%%%%%%%%%%%%%%%%j%%J%%%%
54210@J%j%%%%%%%%%%%%%%%%%%%%%%%%%%%%J%j%%%%%%%%%%%%%%%%%%%%%%%%%%%%%%%%%%%%%%%%
54135@%%%%j%%%%J%%%%%%%%%%%%%%%%%%%%%%%%%%%%%%%%%%%%%%%%%%%%%%%%%%%%%%%%%%%%%%%%
54060@%%%%%%%%%%%%%%%%%%%%%%%%%%%%%%%%%%%%%%%%%%%%%%%%%%%%%%%%%%%%%%J%j%%%%%%%%%
53984@%%%%%%%%%%%%%%%%%%%%%%%%%%%%%j%J%%%%%%%%%%%%%%%%%%%%%%%%%%%%%%%%%J%j%%%%%%
53909@%%%%%j%%J%%%%%%%%%%%%%%%%%%%%%%%%%%%%%%%%%%%%%%%%%%%%%%%%%%%%%%%%%%%%%%%%%
53834@%%%%%%%%%%%%%%%%j%%%J%%jJ%%%%%%%%%%%%%%%%%%%%%%%%%%%%%%%%%%%%%%%%%%%%%%%%%
53758@%%%%%%%%%%%%%%%%%%%%%%%%%%%%%J%%j%%%%%%%%%%%%%%J%%j%%%%%%%%%%%%%%%%%%%%jJ%
53683@%%j%J%%%j%J%%%%%%%%%%%%jJ%%%%%%%%%%%%%%%%%%%%%%%%%%%%%%%%%%%%%%%%%%%%%jJ%%
53608@%%%%%%%%%%%%%j%%%J%%%%%%%%%%%%%%%%%%%%%%%%%%%%%%%%%%%%%%%%%%%%%%%%%%%%%%%%
53532@Jj%%%%J%%j%%%%%%%%%%%%%%%%%%%%%%%%%%%%%%%%%%%%%%%%%%%%%%%%%%%%%%%%%%%%%%%%
53457@%%%%%%%%%%%%%%%%%%%%%%%%%%%%%%%%%%%%%%%%%%%%%%%%%%%%%%%%%%%%%%%%%%%%%%J%%%
53382Aj%%%%%%%%%%%%%%%%%j%%J%%%%%%%%%%%%%%%%%%%%%%%%%%%%%%%%%%%%%%%%%%%%%%%%%%%%
53306@%%%%%%%%%%%%%%%%%%%%%%%%%%%%%%%%%%%%%%%%%%%%%%%%%%%%%%%%%%%%%%%%%%%%%%%%%%
53231@J%j%%%%%%%%%%%%%%%%%%%%%%%%%%%%%%%%%%%%%%%%%%%%%%%%%%%%%%%%%%%%%%%%%%%%%%%
53156@%%%%%JjJ%j%%%%%%%%%%%%%%%%%%%%%%%%%%%Jj%%%%%%%%%%%%%%%%%%jJ%%%%%%%%%%%%%%%
53080@%%%%%%%%%%%%%%%%%%%%%%J%%%%j%%%%%%%%%%%%%%%%%%%%%%%%%%%%%%Jj%%%%%%%%%%%%%%
53005@%%%%%%%%%%%%%%%%%%%%%%%%%%%%%%%%%%%%%%%%%%%%%%%%%j%J%%%%%%%%%%Jj%%%%%%%%%%
52930@%%%%%%%%%%%%%%%%%%%%%%%%%%%%%%%%%%%%%%%%%%%%%%%%%%%%%%%%%%%%%%%%%%%%%%%%%%
52854@%%%Jj%%%%%%%%%%%%%%%%%%%%%%%%%%%%%%%%%%%%%%%%%%%%%%%%%%%%%%%jJ%%%%J%j%%%jJ
52779@%%%%%%%%%%%%%%%%%%%%%%%%%J%%%j%%%%%%%%%%%%%%%%%%%%J%%j%%J%%%%%j%%%%%%%%%%%
52704@%%%%%%%%%%%%%%%%%%%%%%%%%%%%%%%%%%%%%%%%%%%%%%%%%%%%%%%%%%%%%j%%J%%%%%%%%%
52628@%%%%%%%%%%%%%%%Jj%%%%%%%%%%%%%%%%%%%%%%%%%%%%%%%%%%%%%%%%%%%%%%%%%%%%%%%%%
52553@%%%%%%%%%J%j%%%%%%%%%%%%%%%%%%%%%%%%%%%%%%%%%%%%%%%%%%%%%%%%%%%%%j%%%%J%jJ
52478@%%%%%%%%%%%%%%%%%%%%%%%%%%%%%%%%%%%%%%%%%%%%%%%%%%%%%%%%%%%%%%%%%%%%%%%%%%
52403@%%%%%%jJ%%%%%%%%%%%%j%J%%%%%%%%%%%%%%%%%%%%%Jj%Jj%%%j%J%%%%%%%%%J%j%%%%%%%
52327@%%%%%%%%%%%%%%%%%%%%%%%%%%%%%%%%%%%%%%%%%%%%%%%%%%%%%%%%%%%%%%%%%%%%%%%%%%
52252@%%%%%%%%%%%%%%%%%%%%%%Jj%%%%%%%%%%%%%%%%%%%%%%%%%%%%%%%%%%%%%%%%%%%%%%%%%%
52177@%%%%%%%%%%%%%%%%%%%%%%%%%%%%%%%%%J%j%%%%Jj%%%%%%%%%%%%%%%%%%%jJ%j%J%%%%%%%
52101@%%%%%%%%%%%%%%%%%%%%Jj%%%%%%%%%%%%%%%%%%%%%%%%%%%%%%%%%%%%%%%%%%%%%%%%%%%%
52026@%%%%%%%%%%%%%%%%%%%%%%%%J%%%%j%%%%%j%J%%%%%%%%%%%%%%%%%%%%%%%%%%%%%%%%%%%%
51951@%%%%%%%%%%%%%%%%%%%%%%%%%%%%%%%%%%%%%%%%%%%%%J%j%%%%%%%%%%%%%%%%%%%%%%%%%%
51875@%%%%%%%%%%%%%%%%%%%%%%Jj%%%%%%%%%%%%%%%%%%%%%%%%%%%%%%%%%%%%%%%%%%%%%%%%%%
51800@%%%%%%j%%%J%%%%%%%%%%%%%%%%%%%%%%%%%%%%%%%%%J%%%j%%%%%J%%%%%j%%%%%%%%%%%%%
51725@%%%%%%%%%%%%%%%%%%%%%%%%%%%%%%%%%%%%%%%%%%%%%%J%j%%%%%%%%%%%%%%%%%%%%%%%%%
51649@%%%%%%%%%%%%%%%%%%%%%%%%%%%%%%%%%%%%%%%%%%%%%%%%%%%%%%%%%%%%%%%%%%%%%%%%%%
51574@%%%%%%%%%%%%%%%%%%%%%%%%%%%%%%%%%%%%%%%%%j%%%%J%%%%%%%%%%%%%%%%%%%%%%%%%%%
51499@%%%%%%%%%%%%%%%%%%%%%%%%%%%%%%%%Jj%%%%%%%%%%%%%J%%%j%%%J%j%%%%%%%%%%%%%%%%
51423@%%%%%%%%%%%%j%J%%%%%%%%%%%%%jJ%%%%%%%%%%%%%%%%%%%%%%%%%%j%%J%%%%%%%%%%%%%%
51348@jJ%%%%%%%%%%%%%%%%%%%%%%%%%%%%%%%%%%%%%%%%%%%%%Jj%%%%%%%%%%%%%%%%%%%%%%%%%
51273@%%%%%%%%%%%%%%%%%%%%%%%%%%%%%%%%%%%%%%%%%%%%%%%%%%%%%%%%%%J%%%j%%%%%%%%%%%
51197@%%%%%%%%%%%%%%%%%%%%%%%%%%%%%%j%%J%%%%%%%%%%%%%%%Jj%%%%%%%%j%J%%%%%%%%%%%%
51122@%%%%%%%%%%%%%%%%%%%%%%%%%%%%%%%%%%%%%%%%%%%%%%%%%%%%%%%%%%%%%%%%%%%%%%%%%%
51047@%%%%%%%%%%%%%%%%%%%%%%%%%%%%%%%%%%%%%%%%%%%%%Jj%%%Jj%%%J%%j%%%%%%%%%%%%%%%
50971@%%%%%%%%%%%%jJ%%%%%%%%%%%%%j%J%j%%%J%%%%%%%%%%%%%%%%%%%%%%%%%%%%%%%%%%%%%%
50896@%%J%%%%j%%%%%%%%%%%%%%%%%%%%%%%%%%%%%%%%%%%%J%%j%%%%%%%%%%%%%%%%%%%%%%j%%%
50821a%%J%%%%%%%%%%%%%%%%%%%%%%%%%%%%%%%%%%%%%%%%%%%J%%%%%jJ%%%%%j%%%%%%%%J%j%J%
50745A%%%%%j%%%%%%%%%%%%%%%%%%j%%%%%J%%%%%%%%%j%%J%%%%%%%%%%%%%%%%%%%%%%%%%%%%%%
50670@%%%%%%%%%%%%%%%%%%%%%%%%%%J%j%%%%%%%%%%%%%%%j%J%%%%%%%%%%%%%%%%%%%%%%%%%%j
50595a%%%%J%%%%%%%%%%%%%%%%%%%%%%%%%%%%%%%%%%%%%%%%%%%%%%%%%%%%%%%%%%%%%%%%%%%J%
50519A%%%j%%%%%%J%j%%%%%%%%%%%%%%%%%%%%%%%%%%%%%%%%%%%%%%%%%%%%%%%%%%%%%%%%%%%%%
50444@%%%%%%%%%%%%%%%%%%%%%%%%%%%%%%%%%%%%%%%%%%%%%%%%%J%%j%%%%%%%%%%%%%%%%%%%%%
50369@%J%%j%%%%%%%%%%%%%%j%%J%%%%%%%%%%%%%%%%%%%%%%%%%%%%%%%%%%%%%%%%%%%%%%%%%%%
50294@%%%%%%%%%%%%%%%%%%%%%%%%%%%%%j%J%%%%%%%%%%%%%%Jj%%%%%%%%%%%%%%%%%%%%%%%%%%
50218@%%%%%%%%%%%%%%%%%%%%%%%%%%%%%%%%%%%%%j%J%%%%%%%%%%%%%%%%%%%%%%%%%%%%%%%%%%
50143@jJ%%%%%%%%%%%%%%%%%%%%%%%%%%%%%%%%%%%%%%%%%%%%%%%%%%%%%%%%%%%%%%%%%%%%%%%%
50068@%%%%%%%%J%j%%%%%%%%%%%%%%%%%%%%%%%%%%%%%%%%%%%%%%%%%%%%%%%%%%%%%%%%%%%%%%%
49992@%%%%%%%%%%%%%%%%%%%%%%%j%J%%%%%%%%%%%%%%%%%%%%%%%%%%%%%%%%%%%%%%%%%%%%%%%%
49917@%%%%%%%%%%%%%%%%%%%j%%J%%%J%%%%j%%%%%%%%%%%%%%%%%%%%%%%%%%%%%%%%%%%%%%%%%%
49842@%%%%%%%%%%%%%%%%%%%%%%%%%%%%%%%%%%%%%%%%%%%%%%%%%%%%%J%j%%%%%%%%%%%%%%%%%%
49766@%%%%%%%%%%%%%%%%%%%%%%%%%%%%%%%%%%%%%%jJ%%%%%%%%%%j%J%%%%%%%%%%%%%%%%%%%%%
49691@%%%%%%%%%%%%%%%%%%%%%%%%%%%%%%%%Jj%%%%%%%%%%%%%%%%%%%%%%%%%%%%%%%%%%%%%%%%
49616@%%%%%%%%%%%%%%%%%%%%%%%%%%%%%%%%%%%%%%%%%%%%%%%%%Jj%%%%%%%%%%%%%%%%%%%%%%%
49540@jJ%%%%%%%%%%%%%j%%%%J%%%%%%%%Jj%%%%%%%%%%%%%%%%%%%%%%%%%%%%%%%%j%%%J%%%%%%
49465@%%%%%%%%%%%%%%%%%%%%%%%%%%%%%%%%%%%%%%%%%%%%%%%%%%%%%%%%%%%%%%%%%%%%%%%%%%
49390@%%%%%j%J%%%%%%%%%%%%%%%%%%%%%%%%%%%%%%%%%%%%%%%%%%%%%%%%%%%%%%%%%%%%%%%%%%
49314@%%%%%%%%%%%%%%%%%%%%%%%%%%%%%%%%%%%%%%%%%%%%%%%%%%%%%%%%%%%%%%%%%%%%%%%%%%
49239@%%%%%%%J%%j%Jj%%%%%%%%%%%%%%%%j%J%%%%%%%%%%J%j%%%%%%%%%%%%%%%%%%%%%%%%Jj%%
49164@%%%%%%%%J%j%%%%%%%%jJ%%%%%%%%%%%%%%%%%%%%%%%%%%%%%%%%%%%%%%%%%%%%%%%%%%%jJ
49088@%%%%%%%%%%%%%%%%%%%%%%%%%%%%%%%%%%%%%%%%%%%%%J%j%%%%%%%%%%%%%%%%%%%%%%%%%%
49013@%%J%j%%%%%%%%J%j%%J%%j%%%%%%%%%%%%%%%%%%%%%%%%%%%%%%%%%%%%%J%%%%%j%%%%%%%%
48938@%%%%%%jJ%%%%%%%%%%%%%%%%%%%%%%%%%%%%%%%%%%%%%%%%%%%%%%%%%%%%%%%%%%%%jJ%%%%
48862@%%%%%%%%%%%%%%%%%%%%%J%j%%%%%%%%%%%%%%%%%%%%%%%%%%%%%%%%%%%%%%%%%%%%%%%%%%
48787@%%%%%J%%j%%%%%%%%%%%%%%%%%%%%%%%%%%%%%%%%%%%%%%%%%%%%%%%%%%%%%%%%%%%%%%%%%
48712@%%%%%%%%%%%%%%j%%J%%%%%%%%%%%%%j%%%%%%%J%%%%%%%%%%J%%%j%J%j%%%%%%%%%J%j%%J
48636A%j%%%%%%%%%%%%%%%%%%%%%%%%%%%%%%%%Jj%%%%%%%%%%%%%%%%%%%%%%%%%%%%%%%jJ%%%%%
48561@%%%%%%%%%%%%%%%%%%%%%J%%j%%J%j%%%%%%%%%%%%%%%%%j%J%%%%%%%%%%%%%%%%%%%%%%%%
48486@%%%%J%j%%%%%%%%%%%%%%%%%%%%%%%%%%%%%%%%%%%%%%%%%%%%%%%%%%%%%%%%%%%%%%%%%%%
48410@%%%%%%%%%%%%%%%%%%%%%%%%jJ%%%%J%%j%%%%%%%%%%%%%%%%%%%%%%%%%%%%%jJ%%%%%%%%%
48335@%%%%%%%%%%%%j%J%%%%%%%%%%%%%%%%%%j%J%%j%J%%%%%%%%%j%%J%%%%%%%%%%%%%%%%%%%%
48260@%%%%%%%%%%%%%j%%%%%J%%%%%%%%%%%%%%%%%%%%%%%%%%%%%%%%%%%%%%%%%%%%%%%%j%%%J%
48185@jJj%%%J%%%%%%%%%%%%%%%%%%%%%%%%%%%%%%%%%%%%%%%%%%%%%%j%%%J%%jJ%%%%j%J%j%J%
48109@%%%%%%%%%%%%%%%%%%j%%%%J%%%%%%%%%%%%%%%%%%%%%%%%%%%%%%%%%%%%%%%%%%%%%%%%%%
48034@%%%%%%%%%%%%%%%%%%%%%jJ%%%%%%%%%j%J%%%%%%%%%%%%%%%%%%%%%%%j%%J%%%%%%%%%%%J
47959Aj%J%%%j%%%%%%%%%%%%%%%%%%%%%%%%%%%%%%%%%%j%%%J%%%%%%%%%%%%%%%%%%%%%%%%%%%%
47883@%%%%%%J%%%j%%%%%%%%%%%%%%%%%%%%%J%%%j%%%%%%%%%%%%%%%%%%%%%%%%%%%%%%%%%%%%j
47808a%%%%J%%%%%%%%%%%%%%%%%%%%%%%%%%%%%%%j%J%%%%%%%%%%j%%%J%%%j%%J%%%%%%%%%%%%%
47733@%%%%%%%%j%%%%J%%%%%%%%%%%%%%%%%%%%%%%J%j%%%%%%%%%%%%%%%%%%%%%%%%%%%%%%%%%%
47657@%%%%%%%%%%%%%%%%%%%%%%%%%%%%%%%%%%%%%%%%%%%%%%%%%%%%%%%%j%%%%%%J%%%%%%%%%%
47582@%%%%%%%%%%%%%%%%%%%%%%%jJ%%%%%%%%%j%%%J%%%%%%%%%%%%%%%%%%%%%%%%%%%%%%%%%%%
47507@%%%%%%%%%%%%%%%%%%%%%%%%%%%%%%%%%%%%%%%%%%%%%j%%%J%j%%J%%%%%%%%J%j%%%%%%%%
47431@%%%%%%%%%%%%%%%%%%%%%%%%%%%%%%%%%%%%%%%%%%%%%%%%%%%%%%%%%%%%%%%%%%%%%%%%%%
47356@%%%%%%%%%%%%%%%%%%%%%%%%%%%%%%%%%%%%%%%%%%%j%%J%%%%%%%%%%%%%%%%%%%%%%%%%%%
47281@%%%%%%%%%%%j%J%%%j%J%%%%%%%%%%%%%%%jJ%%%%%%%%%%%%%%%%%%%%%%%%%j%J%jJ%%%%%%
47205@%jJ%%%%%%%%%%%%%%%%%%%%%%%%%%%%%%%%%%%%%%%%%%%%%%%%%%%%%%%%%%%%%%Jj%%%%%%j
47130aJ%j%%J%%%%%%%%%%%%%%%%%%%%%%%%%%j%J%%%%%%%%%%%%%%%%%%%%%%%%%%%%%%%%%%%jJ%%
47055@%%%j%J%%%%%%jJ%%%%%j%%%J%%j%%J%%%%%%%%%%%%%%%%%%%%%%%%%%%%%%%%%%%%%%%%%%%%
46979@%%%%%%%%%%%%%%%%%%%%%%%%%%%%%%%%%%%%j%%%J%%%%%%%%%%%%%%%%%%%%%%%%%%%%%%%%%
46904@%%%%%%Jj%J%%j%%%%%%%%%%%%%%%%%%%%%%%%%%%%%%%%%%%%%%%%%%%%%%%%%%%%%%%%%%%%%
46829@%%%%%%%jJ%%%%%%%%%%%%%%%%%%%%%%%%%%%%%%%%%%%%%%%%%%%%%%%%%%%%%%%%%%%%%%%%%
46753@%%%%%%%j%J%%%%%%%%Jj%%%%%%%%%%%%%%%%%%%%%%%Jj%%%%%%%%%%%%%%%%%%%%%%%%%%%%%
46678@%%%%%%%%%%%%%%%%%%%%%%%%%%%%%%%%%%%%%%%%%%%%Jj%%%%%%%%%%Jj%%%%%%%%%%%%%%%%
46603@%%%J%%%%%%%%%%%%%J%%%J%%%%J%%%%%Jj%%%%%%%%%%%%%J%j%%%%%%j%%j%%%%%j%%%j%%%%
46527@%%%%%%%%%%%%%%%%%%%%%%%%%%%%%%%%%%j%J%%j%J%%%%%%%%%%%%%%%%%%%%%%%%%%%%%%%%
46452@%%%%%%%%%%%%%%%%%%%%%%%%%%%%%%%%%%%%%%%%%%%%%%%%%%%%%%%%%%%%%%%%%%%%%%%%%j
46377a%%J%%%%%%%%%%%%%%%%%%Jj%%%%%%%%%%%%%%J%%j%%%%%%%%%%%%%%jJ%%%%%%%%%%%%%%%%%
46301@%%%%%%%%%%%%%%%%%%%%%%%%%%%%%%%%%%%%%%%%%%%%%%%%%%%%%%%%%%%%%%%%%%J%%j%%%%
46226@%%%%%%%%%%%%%%%%%%%%%%%%%%jJ%%%%%%%%%%%%%%%%%%%%%%%%%%%%%%%%%%%%%%%%%%%%%%
46151@%%%%%%%%%%%%%%%%%%%%%%%%%%%%%%%%%%%%%%%%%%%%%%%%%%%%%%%j%%%J%%%%%%%%j%%%J%
46075@j%%J%%%%%%%%%%%%%%j%J%%%j%J%%%%%%jJ%%%j%J%%%%%%%%%%%%%%j%J%%%%%%%%%%%%%%%%
46000@j%%%J%%%%%%%%%%%%%J%j%%%%%%%%%%%%%%%%%%%%%%%%%%%%%%%%%%%%%%%%%%%%%%%%%%%%%
45925@%%%%%%%%%%%%%%%%%%%%%%%%%%%%%%%%%%%%%%%%%%%%%%%%%%%%%%%%%%%%%%%%%%%%%%%%%%
45850@%%%%%%%%%%%%%%%%%%%%%%%%%%%%%J%%%%j%%%%%%%%%%J%j%%%%%%%%%%%%%%%%%%%%%%%%%%
45774@%%%%%%%%%%%%%%%%%%%%J%%j%%%%%%%%%%%%%%%%%%%%%%%%%%%%%%%%%%%%%%%%%%%%%%%%%%
45699@%J%j%%%%%%%%%%%%%%%%%%%%%%%%%%%%%%%%j%%J%%%%%%%%%%%%%%%%%%%%J%j%%%%%%%%%%%
45624@%%%%%%%%%%%%%%%%%%j%J%%%%%%%%%%%%%%%%%%%%%%%%%%%jJ%%%%%%%%j%J%%%%%%%%%%%%%
45548@%%%%%%%%%%%%%%%%J%%j%%%%%%%%%%%%%%%%%%%%%%%%%%%%%%%%%%%J%%jJ%%j%%%%%%%%%%%
45473@%%%%%%%%%%%%%%%%%%%%%%%%%%%%%%j%%%J%%%%%%%%%%%%%%%%%%%%%%%%%%%%%%%%%%%%%%%
45398@%%%%%%%%%%%%%%%%%%%%%%%%%%%%%%%%%%%%%%%%%%%%%%%%%%%%%%%%%%%%%%%%%%%%%%%%%%
45322@%%%%%%%%%%%%jJ%%%%%%%%%%%%%%%%%%%%%%%%%%%%%%%%%%%%%%%%%%%%%%%%%%%%%%%%%%%%
45247@%%%%%%%%%%%%%%%%%%%%%%%%%%%%%%%%%%%%%%%%%%%%%%%%%%%%%%j%%J%%%%%%%%%j%%J%%%
45172@%%%%%%%%%%%%%%j%J%%%%%%%%%%%%%%%%%%%%%%%%%%%%%%%%%%%%%%%%%%%%%%%%%%%%%%%%%
45096@%%%%%%%%%%%%%%%%%%%%%%%%%%%%%%%%%%%%%%%%%%%%%%%%%%%%%%%%%%%%%%%%%%%%%%%%%%
45021@%%%%%%%%%%%%%%%%%%%%%%%%%%%%%%%%%%%%%%%J%j%%J%%j%%%%%%%%%%%%%%%%%%%%%%%J%%
44946A%%%J%%%%%%%J%%%%J%%J%%J%%%%%%%j%%%%%j%j%%%%%j%%%%%jJ%j%%%%%%%%j%Jj%J%%%%%j
44870@%%%%%%J%%%%%%%J%%%J%%%j%%%%J%%%%%%%%%%J%J%%%J%%J%%j%%j%j%j%%j%%%j%%%%%%%%j
44795@J%j%%%%%%%%%%%%%%%%%%%%%%%%%%%%%%%%%%%%%%%%%%%%%%%%%%%%%%%%%%%%%%%%%J%%%j%
44720@%%%%%%%%%%%%%%%%%%%%%%%%%%%%%%%%%%%%%%%%%%%%%%%%%%%%%%%%%%%%%J%%%%%%J%%%%%
44644B%%%%%%%%%%%%%%%%%%%%%%%%%%%%%%%%%%%%%%j%%%%j%J%%%j%%%%%%J%j%J%j%%%J%j%J%%%
44569A%%%%%%%%%%%%%%%J%j%J%%%%%%%%%%%%%%%%%%%%%%j%%%%%%%%%j%%%%%%%%%%%%%%%%%%%%%
44494@%%%%%%Jj%%%%%%%%%%%%%%%%%%%%%%%%%%%%%Jj%%%%%%%%%%%%%%%%%%%%%%%%%%%%%%%%%%%
44418@%%%%%%%%%%%%j%J%%%%%%%%%%%%j%J%%%%%%%%%%%%%%%%%%jJ%%%%%%%%%%%%%%%%%%%%%%%%
44343@%%%%%%%%%%%%%%%%%%%%%%%%%%Jj%%%%%%%%%%%%%%%%%%%%%%%%%%%%%%%%%%%%%%%%%%j%%%
44268aJ%%%%%%%%%%%%%%%%%%%%%%%%%%%%%%%%%%%%%%%%%%%%%%%%%%%%%%%%%%%%%%%%%%%%%%%%j
44192a%%J%%%%%%%%%%%%%%%j%%%J%%%%%Jj%%%%%%%%%%%%%%%%%%%%%%%%%%%%%%%%%%%%%%%%%%%%
44117@%%%%%%%%%%%%%%%%%%%j%J%%%%%%%%%%%%%%%%%%%j%%J%%%%%%%%%%%%J%j%%%%%J%%%%%%j%
44042@%%%%%%%%%%%%%%%%%%%%%%%%%%%%%%%%%%%%%%%%%%%%%%%%%%%%%%%%%%%%%%%%%%j%J%%%%%
43966@%%%%%%%%%%%%%%%%%%%%%%%%%%%%%%%%%%%%%%%%%%%%%%%%%%%%%Jj%%%%%%%%%%%%%%%J%%j
43891@%%%%%%%%%%%%%%%%%%%%%%%%J%%j%%%%%j%J%%%%%%%%%%%%%%%%%%%%%%%%%%%%%%%%%%%jJ%
43816@%%%%%%%%%%%%%%%%%%%%%%j%%J%%%%%%%%%%%%%%%%%%%%%%%%%%%%%%%%%%%%%%%%%%%%%%%%
43741@%%%%%%%%%%%%%%%%%%%%%%%%%%%%%%%%%%%%%J%%%j%%%J%%%%%j%%%%%%%%%%%%%%%%%%%%%%
43665@%%%%J%%J%%jJ%%J%%%%%%%j%%%%%%%%%%%%J%%%%%%j%j%%%%%jJ%%%j%%%%%%%%%%%%%J%j%%
43590@%%%%%%%%%%Jj%%%%%%%J%%%j%J%%%%J%%%%%%%%%%%%%%%%%%%%jJ%%%J%%%%%jj%%%%%%%%%j
43515@J%j%%%%%%%%%%%%%%%%Jj%%%%%%%%%%%%%%%%%%%%%%%%%%%%%%%%%%%%%%%%%%%%%%%%%%%%%
43439@%%%%%%%%%%%%%%%%%%%%%%%%%%%%j%J%%%%%%%%%%%%%%%%%%%%%%%%%%%%%%%jJ%%%%%%%%%%
43364@%%%%%%%%%%%%%%%%%J%j%%%%%%%%%%%%%%%%%%%%%%%%%%%%%%%%%%%%%%%%%%%%%%%%%%%%%%
43289@%%%%%%%%%Jj%%%%%%%%%%%jJ%%%%%%%%%%%%%%%%%%%%%%%%%%%%%J%%%%%%j%%%%%%%%%%%%%
43213@%%%%%%%%%%%%%%%%%%%%%%%%%%%%%%%%%%%%%%%%%%%%%%%%%%%%Jj%%%j%%%%J%%%%%%%j%J%
43138@j%%J%%%%%%%%%%%%%%%%%%%%%%%%%%%%%%%%%%%J%j%%j%J%%%%%%%%%%%%%%%%%%%%%%%%%%%
43063@%%%%%%%%%%%%%%%%%%%%%%%%%%%%%%%%%%%%%%%%%%%%%%%%%Jj%%%%%%%%%%%%%%%%%%%%%%%
42987@%%%%%%%%%%jJ%%%%%%%%%%%%%%%%%%%%%%%%%%%%%%jJ%%%%%%%%%%%%%%%%%%%%%%%%%%%%%%
42912@%%%%%%%%%%%%%%%%%%%J%j%%%%%%%%%%j%J%%%%%%%%%%%%%%%%%%%%%J%j%%%%%J%j%J%%%%%
42837A%%j%J%%%jJ%%j%J%%%%%%%%%%j%%J%%j%%%%%%%%%%%%%%%%%%%%%%%%%%%%J%%%%%%J%%%%J%
42761C%j%%%%%%j%%J%%%%%%%J%j%%%j%%%J%%%%%j%%%%%%J%%%%%%%%%%%%%%%%%%%%%%%%%J%%J%%
42686DJ%%%%%%%j%j%j%%%%%%%%%%%%%%%%Jj%%%%%%%j%%%%%%%%%%J%%%%%%%%%%%J%%%j%%jJ%%%%
42611B%%%%%%%%%%%j%%%%%%j%%%%%%%%%%%%%%%j%%%J%%%%%%%%%%%%J%j%%%%%J%%%%%%%%%%%j%%
42535@%%%%%%%%%%%%%%%%%%%%%%%%%%jJ%%%%%%%%%%%%%J%%j%%%%%%%%%J%j%%%%%%%%%%%%%%%%%
42460@%%%%%%%%%%%%%%%%%%%%%%%%%%%%%%%%%%%%%%%%%%%%%%%%%%%%%%%%%%%%%%%%%%%%%%%%%%
42385@%%%%%%J%j%%%%%%%%%%%%%%%%%%j%J%j%J%%%%%%%%%%%%%%%%%%%%%%%%%%%%%%%%%%%%%%%%
42309@%%%%%%%%%%%%%%%%%%%%%%%%%%%%%%%%%Jj%%%%%%%%%%%%%%%%%%%%j%J%%%%%%%%%%J%j%%%
42234@%%%Jj%Jj%%%%%%%%%%%%%%%%%%%%%%%%%%%%%%%%%%%%%%%%%J%j%%%%%%%%%%%%%%%%%j%%J%
42159@%%%%%%%%%%%%%%%%%%%%j%%J%%%%%%%%%Jj%%%%%%%%%%%%%%%%%%%%%%%%%%%%%%%%%%%%%%%
42083@%%%%%%%%%%%%%%%%%%%%%%%%%%%%%%%%%%%%%%%%%%J%j%%%%%%%Jj%%%%%%%%%%%%%%%%%%%%
42008@%%%%%%jJ%%%%%%%%%%Jj%%%%%%%%%%%%%%%%%%%Jj%%%%%%%%%%%%%%%%%%%%%%%%%%%%%%%%%
41933@%j%%J%%%%%%%%%%%%%%%%%%%%%%%%%%jJ%%%%%%%%%%%%%%%%%%%%%%%%%%%%%%%%%%%%%%%%%
41857@%%%%%%%%%%%%%%%%%%%%%%%%%J%j%%%%%%%%%%%%%%%%%%%%%%%%j%J%%%%J%j%%%%%%%%%%%%
41782@%j%J%%%%%%%%%%%%%%%%%%%%%%%%%jJ%%%%%j%%J%%%%%J%j%%%%%%%%%%%jJ%%%%%%%%%%%%%
41707@%%%%%J%%j%%%%%%%%%%%%%%%%%%%%%%%%%%%%%%%%%%%%%%%%%%%%%%%%%%%%%%%%%%%%%%%%%
41632@%%%%%%%%%%J%%%%%%%j%%%%%%%%%%%%%Jj%%%%%Jj%%%%%%%%%%%%%%%%%%%%%J%%%%%%%%j%J
41556A%%%%%%j%%%%%%%%%%%%%%%%%%%%%%%%%%%%%jJj%J%%%%%j%J%j%%J%%%%%j%%J%%%%%%%%%%%
41481@%%%%%%%%%%%%%%%%%%%%%%%%%%%%J%j%%%%%%%%%%J%%j%%%%%%%%%%%%%%%%%%%%%%%%%%%%%
41406@%%%%%%%%%%%%%%%%%%%%%%%%%%%%jJ%%%%%%%%%%%%Jj%%%%%%%%%%%%%%%%%%%%%%%%%%%%%%
41330@%%%%%%%%%%%%%%%%%%%%%%%%%%%%%%%%%%%%%%%%%%%%%%%%%%%%%%%%%%%%%%%%%%%%%%%%%%
41255@%%%%%%%%%%%%%%%%%%%%%%%%%%%%%%%%%J%%%%%%%%%%%%j%%%%%%%%J%j%%%%%%%%J%%j%%%%
41180@%%%%%%%%%%%%%J%j%%%%%%%jJ%%%%%%%%%%J%%%%%%%%%%%j%%%%%%J%j%%%%%%%%%%%%%%%%%
41104@%%%%%%%%%%%%%%%%%%%%%%%%%%%%%%%j%%J%%%%%%%%%%%%%%%%%%%%%%%%%%%%%%%%%%%%%%%
41029@%%%%%%j%J%%J%%%%%%%j%%%%%%%%%%%%%%%%%%%%%%J%%j%%%%%%%%%%%%%j%J%j%J%%%j%%J%
40954@%%%%%%%%%%%%%%%%%%%%%%%%J%%j%%J%%%%j%%%%%%%%%%%%%%%%%%%%%%%%%%%j%J%%%%%%%%
40878@%%%%%%%%%%%%%%%%%%%%%%%%%%%%%%%%%%J%j%%%%%%j%%%J%%%%%%%%j%%J%%%%%j%%%%J%j%
40803aJj%J%%%%%%%%%%%%%%%%%%j%J%%%%%%%%%%%%%%%%%%%%%%%%%%%%%%%J%%j%%%J%%j%%%J%%j
40728@%%%%%%%%%%%%%J%%%%%%%%%%%%%%%%%%%%%%%j%%%%%%%%%%%%%%%%%Jj%%%%Jj%%J%j%%%%%%
40652@%%%%%%%%%%%%%%%%%%%%%%%%%%%%%%%%%%%%%%%J%%%j%%%%%%%%%%%%%%%%%%%%%%%%%%%%%%
40577@%%%%%%%%J%j%%%%%%%%%%J%j%%%%%%%%%%%%%%%%%%%%%%%%%%%%%%%%%%%%%%%%%%%%%%%%%%
40502@%jJ%%%%%%%%%%%%%%%%%%%%%%j%%J%%%%%%%%J%%j%%%%%%%%%J%j%%%J%%%%%%j%%%%%%%%%%
40426@%%%J%j%%%%%%%%%%%%%%%%%j%%%J%%Jj%%%jJ%%%%%%%jJ%%%%%%%%%%%%%%%%%%%%%%jJ%%%%
40351@%%J%j%%%%%%%%%%%%%%%%%%%J%%%j%%%%%%%%%%%%%%%%%%%%%%%%%%%%%J%j%%%%%%%%%%%%%
40276@%jJ%%%jJ%%%%%%%%%%jJ%%%%%%j%J%%%%%%%%%%%%%%%%%%%%%%%%%%%%%%%%%%%%%%%%%j%%%
40200aJ%%%%%%%%%%%%%%%%%%%%%%%%%j%J%%%%%%%%%%%%%%%%%%%j%%%%%J%%%%%%%%%%%%%%%%%%%
40125@%%%%%%%%%%%%%%%%%jJ%%%%%%%%%%%%%%%%%%%%%%%%%%%%%%%%%%%%%%%%%%%%%%%%%%%%%%%
40050@%%%%%%%%%%%%%%%%%%%J%%%j%%%%%%%%%%%%%%%%%%%%%%%%%%%%%%%%%%%%%%%%%%%%%%%J%j
39974@%%%%%%%%%%%%%%%%%%%%Jj%%J%%%%j%%%%%%%%%%%%%%%%%%%%%%%%%%%J%%%j%%%%%%%%J%%j
39899@%%%%%%J%%j%J%j%%%%%%J%%%%%%%jJj%%%%%Jj%%%%J%%%%%%j%%%%%%%%%%%%%%%%%%%%%%%%
39824@%%%%%%%%%%%%%%%%%%%%%%%%%%%%%%%%%%%%%%%%%%%%%%%%%%%%%%%%%j%J%%%%%%%%%%%%%%
39748@%%%%Jj%%%%%%%%%%%%%%%%%%%%%%%%%%%%%%%%%%%%%%%%%%%%%%%%%%%%%%%%%%%%%%%%%%%%
39673@%%%%%%%%%%%%%%%%%%%%%%%%%%%%%%%J%%%%j%%%%%%%%%%%%%%%%%%%%%%%%%%%%%%%J%%j%%
39598@%%%%%%%%%%%%%%%%%%%%%%%j%J%%%%%%%%%%%%%%%%%%%%%%%%%%%%%%%%%%%%%%%%%%%%%%%%
39523@%%%%%%%%%%%%%%%%%%%%%%%%%%%%%%%%J%%%%%j%%%%%%%%%%%%%%j%J%%%%%%%%%%%%%%%%%%
39447@%%%%%%%%%%%%%%%%%%%%%%%%%%%%%%%%%%%%%%%%%%%%%%%%%%%%%%%%%Jj%%%%%%%%%%%%%%%
39372@%%%%%J%j%%%%%%%%%%j%J%%%%%%%%%%%%%%%%%%%%%jJ%%%%%%%%%%%%%%%%%%%%%%%%%%%%%%
39297@%%%%%%%%%%%%%%%%%%%%%%%%%%%j%%%J%%%%%%%%%%%%%%%%%%%%%%%%%%%%%%%%%%%%%%%%%%
39221@%%%%%%%%%J%%j%%%%%%%%%%%%%%%%%%%j%%%J%%%%%%%%%%%%%%%%%%%%%%%%%%%%%%%%%%%%%
39146@%%%%%%%%%%%%%%%%%%%%%%%%%%%%%%%%%%%%%%%%%%%%%%%%%J%%%j%J%%j%%%%%%%%%%%%%%%
39071@%%%%%%%%%%%%%%%%%%%%%%%%%%%%%%%%%%%%%%%%%%%%%%%%%%%%%%%%%%%%%%%%%%%%%%%%%%
38995@%%J%j%%%%%%%%%%%j%%%%J%%%%%%%%%%%%%%%%%%%%%%jJ%%%%%%%%%%%%%%%%%%%%%%%%%%%%
38920@%%%%%%%%%%%%%%%%%%%%%%%%%%%%%%%%%%%%%%%%%%%%%%%%%%Jj%%%%%%%J%j%%%%%%%%%%%%
38845@%%%J%%j%%%%%%%%%%%%%%%%%%%%%%%%%%%%%%%%%%%%%%%%%%%%%%%%%%%%%%%%%%%%%%%%%%%
38769@%%%%%%%%%%%%%%%%%%%j%%J%%%%%%%%%%%%%%%%%%%%%%%%%%%%%%%%%%%%%%%%%%%%%%%%%%%
38694@%%%%%%%%%%%%%%%%%%%%%%%%%%%%%%%%%%%%J%j%%%%%%%%%%%%%%%%%%%%%%%%%%%%%%%%%%%
38619@%%%%%%%%%J%j%%%%%%%%%%%%%%%%%%%%%%%%%%%%%%%%%%%%%%%%%%%%%%%%%%%%%%%%%%%%%%
38543@%%%%%%%%%%%%%%%%%%%%%%%%%%%%%%%%%%%%%%%%%%%%%%%%%%%%%%%%%%%%%%%%%%Jj%%%%%%
38468@%j%J%%%%%%%%%%%%%%%%%%%%%%%%%%%%%%%%%%%%%%%%%%%%%%%%%%%%%%%%%%%%%%%%%%%%%%
38393@%%%%%%%%%%%%%%%%%%%%%%%%j%%J%%%%%%%%%%%%%%%%%%%%%%%%%%%%%%%%%%%%%%%%%%%%%%
38317@%%%%%Jj%%%%%%%%%%%%%%%%%%%%%%%%%%%%%%%%%%%%%%%%%%%%%%%%%%%%%jJ%%%%%%%%%%J%
38242Aj%%%J%%j%%%%%%%%%%%%%%%%%%%%%%%%%%%%%%%%%%%%%%%%%%%%%%j%J%%%%%%%%%%%%%%%%%
38167@j%J%J%%%%j%%%%%%%%%%%%%%%%%%%%%%%%%%%%%%%%%%%%%%%%%%%%%%%%%%%%%%%%%%%%%%%%
38091@%%%%%%%%%%%%%%%%%%%%%%j%%J%%%%j%%%%J%%%%%%%%%%%%%%%%%%%%%%%%%%%%%%%%%%%%%%
38016@%%%%%%%%%%%%%%%%%%%%%%%%%%%%%%%%%%%%%%%%%%%%%%%%%%%%%%%%%%%%%%%%%%%%%%%%%%
37941@%%%%%%%%%%%%%%%%%%%%%%%%%%%%%%%%%%%%%%%%%%%%%%%%%%%%%%%%%%%%%%%%%%%%%%%%%%
37865@%%%%%%%%%%%%%%%%%%%%%%%%%%%%%%j%J%%%%%%%%%%%%%%%%%%%%%J%j%%%%%%%%%%%%%%%%J
37790A%j%%%%%%%%%%%%%%%%%%%%%%%%%%%%%%%%%%%%%%%%%%%%%%%%%%%%%%%%%%%%%%%%%%%%%%%%
37715@%%%%%%%%%%%%%%%%%%%%%%%%%%%%%%%%%%%%%%%%%%%%%%%%%%%%%%%%%%%%%%%%%%%%%%%%%%
37639@%%%%%%%%%%%%%%%%%%%%%%%%%%%%%%%%%%%%%%%%%%%%%%%%%%%%%%%%%%%%%%J%%%j%%%%%%%
37564@%%%%%%%%%%%%%%%%%%%%%%%%%%%%%%%%%%%%%%%%%%%%%%%%%%%jJ%%%%%%%%%%%%%%%%j%%%%
37489a%J%%j%%%%J%%%%%%%%%%%%%%J%j%%%%%%%%%%%%%%%%%%%%%%%%%%%%%%%%%%%%%%%%%%%%%%%
37413@%%%%%%%%%%%%%%%%%%%%%%%%%%%%%%%%%%%%%%%%%%%%%%%%%%%%%%%%%%%%%%%%%%%%%%%%%%
37338@%%%%%%%%%%%%%%%%%%%%%%%%%%%%%%%%%%%%%%%%%%%%%%%%%%%%%%%%%%%%%%%%%%%%%%%%%%
37263@%%%%%%%%%%%%%%%%%%%%%%%%%%%%%%%%%%%%%%%%%%%%%%%%%%%%%%%%%%%%%%%%%%%%%%%%%%
37188@%%%%%%%%%%%%%J%j%%%%%%%%%%%%%%%%%%%%%%%%%%%%%%%%%%%%%%%%%J%%j%%%%%%%%%%%%%
37112@%%%%%%%%%%%%%%%%%%%%%%%%%%%%%%%%%%%%%%%%%%%%%%%%%%%%%%%%%%%%%%%%%%%%%%%%%%
37037@%%%%%%%%%%%%%%%%%%%%%%%%%%%%%%%%%%%%%%%%%%%%%%%%%%%%%%%%%%%%%%%%%%%%%%%%%j
36962a%%J%%%%%%%%%%%%J%j%%%%%%%%%%%%%%%%%%%%%%%%%%%%%%%%%%%%%%%%%%%%%%%%%%%%%%%%
36886@%%%%%%%%%%%%%%%%%%%%%%%%%%%%%%jJ%%%%%%%%%%%%%%%%%%%%%%%%%%%%%%%%%%%%%%%%%%
36811@%%%%%%%%%%%%%%%%%%%%%%%%%%%%%%%%%%%%%%%%%%%%%%%%%%%%%%%%%%%%%%%%J%%%%j%%%%
36736@%%%%%%%%%%%%%%%%%%%%%%%%%%%%%%%%%%%%%%%%%%%%%%%%%%%%%%%%%%%%%%%%%%%J%%j%%%
36660@%%%%%%%%%%%%%%%%%%%%%%%%%%%%%%%%%%%%%%%%%%%%%%%%%%%j%J%%%%%%%%%%%%%%%%%%%%
36585@%%%%%%%%%%%%%%%%%%j%J%%%%%%%%%%%%%%%%%%%%%%%%%%%%%%%%%%%%%%%%%%%%%%%%%%%%%
36510@%%%%%%jJ%%%%%%%%%%%%%%%%%%%%%%%J%%j%%%%%%%%%%%%%%%%%%%%%%%%%%%%Jj%%%%%%%%%
36434@%%%jJ%%%%%%%%%%%%%%%%%%%%%%%%%%%%%%%%%%%%%%%%%%%%%%%%%%%%%%%%%%Jj%%%%%%%%%
36359@%%%%%%%%%%%%%%%%%%%%%%%%j%%%%%%J%%%%%%%%%%%%%%%%%%%%%%%%%%%%%j%J%%%%%%%%%%
36284@%%%%%%%%%%%%%%%%%%%%%%%%%%%%%%%%%%%%%Jj%%%Jj%%%%%%%%%%%%%%%%%%%%%%%%%%%%%%
36208@%%%%%%%%%%%%%%%%%%%%%%%%%%%%%%%%%%%%%%%%%%%%%%%%%%%J%%%%%j%%%%%%%%%%J%%%j%
36133@%%%%%%%%%%%%%%%%%%%jJ%%%%%%%%%%%%%%%%%%%%%%%%%%%%%%%%%%%%%%%%%%%%%%%%%%%%%
36058@%%%%%%%%%%%%%%%%%%%%%%%%%%%%%%%%%%%%%%%%%%%%%%%%%%%%%%%%%%%%%%j%J%%%j%%J%%
35982@%%%%%%%%%%%%%%%%%%%%%%%%%%%%%%%%%%%%%%%%%%%%%%%%%%%%%%%%%%%%%%%%jJ%%%%%%%%
35907@%%%%%%%%%%%%%%%%%%%%%%%%%%%%%%%%%%%%%%%%%%%%%%%%%%%%%%%%%%%%%%%%%%%%%%%%%%
35832@%%%%%%%%%%%%%%%%%%%%%%%%%%%%%%%%%%%%%%%%%%%%%%%%%%%J%%j%%%%%%%J%j%%%%%%%%%
35756@%%%%%%%%%%%%%%%%%%%%%%%jJ%%%%%%%%%%%%%%%%%%%%%%%%%%%%J%j%%J%j%%%%%%%%%Jj%%
35681@%%%%%J%%j%%%%%%%%%%%jJ%%%%%%%%%%%%%%%%%%%%%%%%%%%%%%%%%%%%%%%%%%%%%%%%%%%%
35606@%%%%%%%%%%%%%%%%%%%%%%%%%%%%%%%%%%%%%%%%%%%%%%%%%%%%%%%%%%%%%%%%%%%%%%%%%%
35530@%J%%%j%%%%%%%%%%%%%%%%%%%%%%%j%J%%%%%%J%%j%%%%%%%%%%%%%%%%%%%%%%%%%%%%%%%%
35455@%%%%%%%%%%j%J%%%%%%%%%%%%%%%%%%%%%%%%%%%%%%%%%%%%%%%%%%Jj%%%%%%%%%%%%%%%%%
35380@%%%%%%%%%%%%%%%%%j%%Jj%%%Jj%J%%%%%%%%jJ%%%%%%%%%J%%%%j%%%%%%%%%%%%%%%%%%%%
35304@%%%%%%%%%%%%%%%%%%%%%%%%%%%%%%%%%%%%%%%%%Jj%J%j%%%%%%%%%%%%%%%%%%%%%%%%%%%
35229@%%%%%%%%%%%%%%%%%%%%%%%%%%%%%%%%%%%%%%%%%%%%%%j%%%J%%%%%%%%%%%%%%%%%%%%%%%
35154@%%%%jJ%%%%%%%%%%%%%%%%%%%%%Jj%%%%%%%%%%%%%%%%%%%%%%%%%%%%%%%%%%%%%%%%%%%%%
35079@%%%%%%jJ%%%%%%%%%%%%%%%%%%%%%%%%%%%%%%%%%%%%%%%%%%%%%%%Jj%%Jj%%%%%%%%%%%%%
35003@%%%%%%%%%%%%%%%%%%%%%%%%%%%%%%%%%%%%%%%J%%j%%%%%%%%%%%%%%%%%%%%%J%j%%%%Jj%
34928@%%%%%%%%%%%%%%%%%%%%%%%%%%%%%%%%%%%%%%%%%jJ%%%%%%%%%%%%%%%%%%%%%%%%%%%%%%%
34853@%%%%%%%%%%%%%%%J%j%%%%%%%%%j%%%%J%%%%%%%%%%%%%%%%%%%%%%%%%%%%%%%%%%%%%%%%%
34777@%%%%%%%%%%%Jj%%%%%%%%%%%%%%%%%%%%%%%%j%J%%%%%%%%j%%J%%%%%%%%%%%%%%%%%%%%%%
34702@%%%%%%%%%%%%%%%%%%%%%%%%%%%j%%%J%%%%%%%%%%%%%%%%%%%%%%%%%%%%%%%%%%%%%%%%%%
34627@%%%J%%%%j%%%%%%%%%%%J%%%%%j%%%%%%%%%%%%%%%%%%%%%%%%%%%%%%%%%%%j%%%%%J%%%%%
34551@%%%%%%%%%%%%%%%%%%%%%jJ%%%%%%%%%%%%%%%%%%%%%%%%%%%%%%%%%%%%%%%%%%%%%%%%%%%
34476@%%%%%%%%%%%%%%%%%%%%%%%%%%%%%%%%%%%%%%%%%%%%%%J%j%%%%%%%%%%%%%%%%%%%%%%%%%
34401@%%%%%%%%%%%%%%%%%%%%%%%%%%%%%%%%%%%%%%%%%%%%%%%%%%%%%%%%%%%jJ%%%%%%%%%%%%%
34325@%%%%%%%%%%%%%%%%%%%%%j%J%%%%%%%%%%%%%%%%%%%%%%%%%%%%%%%%%%%%j%J%%%%%%%%jJ%
34250@%%%%%%Jj%J%%%%j%%%%%%%%%%%%%%%%%%%J%%jJ%%%%%%%j%%%%%%%%%%%%%%%%%%%%%%%%%%%
34175@%%%%%%%%%%%%%%%%%%%%%%%%%%%%%%%%%%%%%%%%%%%%%%%%%%%%%%%%%%%%%%%%%%%%%%%%%%
34099@jJ%%%%%%j%%%J%%%%%%%%%%%%%%%%%%%%%%%%%%%%%%J%j%%%%%%%%%%%%%%j%%J%%%%%%%%%%
34024@%%%%%%%%%jJ%%%%%%%%%%%%%%%%%%%%%%%%%%%J%%j%%%%%%%%%%%%%%%%%%%%%%%%J%j%%%%%
33949@%%%%%%%%%%%%%%%%%%%%%%%%%%%%%%%%%%%%%%%%%%%%J%%%j%%%%%%%%%%%%%%%%%%%%%%%%%
33873@%%J%j%j%JjJ%%%%%%%%%%%%%%%%%%%%%%%%%%%%%%%%%%%%%%%%%%%%%%%%%%%%%%%%%%%%%%%
33798@%%%%j%%%%%%%%%%%%%%%J%%j%J%%%%%%%%%%%%%%%%%%%%%%%%j%J%%%%%%%%%%%%%%%%j%%%%
33723a%J%%%%%%%%%%%%%%%%jJ%%%%%%j%J%%%%%%%%%%%%%%%%%%%%%%%%%%%%%%%Jj%%%%%%%%%%%%
33647@%%%%%%%%%%%%%%%%%%%%%%%%%%%%%%%%%%%%%%%%%j%%J%%%%%%%%%%%%%%%%%%%%%%%%%%%%%
33572@%%%%%%%%%%%%%%%%%%%%%%%%%J%%j%%%%%%%%%%%%%%%%%%%%%%%%%%%%%%%%j%%%%J%%%%%%%
33497@%%%%%%%%%%%%%%%%%%%%%%%%%%%%%%%j%%%J%%%%%%%Jj%%%%%%%%%%%%jJ%j%%%J%%%%%%%%%
33421@j%J%%%Jj%%%%%%%%%%%%%%%%%%%%%%%%%%j%J%%%%%%%%%%%j%%J%%%j%J%%%%%j%%%%J%j%J%
33346@%%%%jJ%%%J%j%%%%%%%%%%%%%%%%%%%%%%%%j%%%%%Jj%%%%%J%%%%%%%%%%%%%%%%%%%%%%%%
33271@%%%%%%%%%%j%J%%%%%%%%%%%%%%j%%J%%%%jJ%%%%%%%%%%%%%j%J%%%%%%%%%%%jJ%%%%%%%%
33195@%%%%%%%%%%%%J%j%%%%%%%%%Jj%%%%%%j%%%J%%%%%%%%%%%%%%%%%%%%%%%%%%J%j%%%%%%%%
33120@%%%%%%%%%%%%%%%%%%%%%%%%%%%%%%%%Jj%%%%%%%%%%%%%%%%%%%%%%%%%%%%%%J%%j%%%%%%
33045@%%%%%%%%%%%%%%%%%%%%%%%%%%%%%%%%%%%%%%%%%%%%%%%%%%%%%%%%%%%%%%%%%%%%%%%%%%
32970@%%%%%J%j%%%%%%%%%%%%%%%%%%jJ%%%%%%%%%%%%%%%%%%%%%%%%%%%%%%%%%%J%%%%%%j%%%%
32894@%%J%j%%%%%%%%%%%%%%%%%%%J%jJ%j%%%%%%%%%%%%%%%%%%%%%%%%%%%%%%%%%%%%%%%Jj%%%
32819@%%%%%%%%%%%%%%%%%%%%%%%jJ%%%%%%%%%%%%%%j%%%%%%%%J%%%%%%j%%J%%%%%%%%%%%%%%%
32744@%%%%%%%%%%%%%%%%%%%%%%%%%%%%%%%jJ%%%%%%%%%%%%%%%%J%%j%J%j%%%%%%%%%%%%%%%%%
32668@%%%%%%%%%%%%%%%%%%%%%%%%%Jj%%%%%%j%J%%%%%%%%%%%%%%%%%%%%%%%%%%%%%%%%%%%%%%
32593@%j%%%%%J%%J%j%%%%j%%%J%%%%%%%%%%%%%%%%%%%%%%%%%%%%%j%%J%%j%%%J%%%%%%%%%%%%
32518@%%%%%%j%%%%%J%%%%%%%%%%%%%J%j%%%%%%%%%J%%j%%%%%J%j%%%%%%%%%%%%%%%%%%%%%%Jj
32442@%%%%%%%%%%%%%%%%%%%%%%%%%%Jj%%%%%%%%%%%%%%%%%%%%%J%%j%%%%%%%%%%%%%%%%%%%%%
32367@%%%%%%%%%%%%%%%%%%%%%%%%%%%%%%%%%%j%J%%J%j%%%%%%%%%%%%%%%%%%%%%%%%%%%%%%%%
32292@%%%%%%J%%%%j%%%%%%%%%%%%%%J%%%%%%j%%%%%%%%j%%%J%%%J%j%%%%%%%%%%%%%%%%%%%%%
32216@%%%%%j%J%%J%%%%%j%%%%%%%%%%%%%%%%%%%%%Jj%%%%%%%%%%%%%%%%%%%%%%%%%%%%%%%%J%
32141Aj%%%%%%%%%%%%%%%%%%%%%%%%%jJ%%%%%%%%%J%%%j%%%%%%%%%%%%%%%%%%%%%%%%%%%%%%%%
32066@%%%%%%%%%Jj%%%%%%%j%J%%j%J%%%%%%%%%%%%%%%%%%%%%%%%%%%%%%%%%%%%%%%%%%%%%%%%
31990@%%%j%%%J%%%%%%%%%%%%%%%%%%%%%%%%%%%%%%j%J%%%%%%%%%%%%%%%%%%%%%%%%%%%%%%%%%
31915@%%%%%%%%%%%%%%%%%%%%%J%j%%%%%%%J%%%j%%%%%%%J%%%%%j%%%%%%%%%%%%%%%%%%%%%%%%
31840@%%%%%%%%%%%%j%J%%%%%%%%%%%%%%%%%%%%%%%%%%j%J%%%%j%J%%%%%%%%%%%%%%%%%%%%%%%
31764@%%%%%%%%%%%%%%%%%%%j%%J%%%%J%%%j%%%%%%%%%%%%%%%%%%%%%%%%%%%%%%%%%%%%%%%%%%
31689@%%%%%%%%%%%%%%%%%%%%%%%%Jj%%%%%%%%%%%%%%%%%%%%%%%%%%%%%%%%%%%%%%%%%%%%%%%%
31614@%J%%%%j%%%%%%%%%%%%%%%%%%%%%%j%J%%%%%%%%%%%%%%%%%%%%%%%%%%%%j%J%%%%%j%%JjJ
31538@%%j%%%%%%%J%%%%%%%%%%%%%%%%%%%%%%%%%%%%%%%%%%%%%%%%%%%%%%%%%%%%%%%%%%%%%%%
31463@%%%%%%%%%%%J%%%%%%%%j%Jj%%%%%%%%%%%%%%%%%%%%%%%%jJ%%%j%%%%%%%%J%%%%%%%%%%%
31388@jJ%%%%%%%%%%%%%%%%%%%%%%%%%%%%%%%%%%%%%%%%%%%%%%%%%%%%%J%j%%%%%%%%%%%%%%%%
31312@%%%%%%%%%%%%%%%%%%%j%%J%%%%%%%%%j%J%%%%%%%%%%%%%%%%%%%%%%%%%%%%%%%%%%%%%%%
31237@j%J%%%j%%%J%%%%%%%%%%%%%%%%%%%%%%%%%%%%%%%%%%%%%%%%%%%%%%%%%%%%%%%%%%%%%jJ
31162@%%%%%%%%%%%%%%%%%%%%%%%%%%%%%j%%J%%%%j%%%J%%%%%%%j%%%%J%%jJ%%%%%%%%%%%J%%j
31086@%%%%%%%%%%%%%%%%%%%%%%%%%%%%%%%%%j%J%j%%%J%%%%%%%%J%j%%%%%%%%%%%%%%%%%%%%%
31011@%j%J%%%%%%%%%%%%%%%%%%%%%%%jJ%%%%%%%%j%%%%J%%%%%%%%%J%j%%%%%%%%%%%%%%%%%%%
30936@%%%%%%%%%%%%%%%%%%%%%%%%%%%%%%%%%%%%%%%%%%%%%%%j%%J%%%%%%%%%%%%%%%%%%%%%%%
30861@%%%%%%%%%%%%j%%%J%%%%%%%%%%%%%%%%%%%%%%%%%%%%%%%%%%%%%%%%%%%%%%%%%%%%%%%%%
30785@%j%%%%J%%%%%%%%%%%%%%%%%%%%%%%%%%%%%%%%%%%%%%%%%%%%%%%Jj%%j%%J%%%jJ%%%%%%%
30710@%%%%%%%%%%%%%%%%%%%%%%%%%%%%%%%%%%%%%%%%%%%%%%%%%%%%%%j%%%%J%%%%%%%%%%%%%%
30635@%%%J%%j%%%%%%%%%J%%j%%%%%%%%%%%%%%%%%%%%%%%%%%%%%%%%%%%%%%%%%J%j%%%%%%%%%j
30559a%J%%%%%%%%%%%%%%%%%%%%%%%%%%%%%%%%%%%%%%%%%%%%%%%%%%%%%%%%%%%%%%%%%%%%%%%%
30484@%%%%%%%%%%%%%%%%%%%%%%%%%%%%%%%%%%%%%%%%%%%%%%%%%%%%%%%%%%%%%%%%%%%%%%%%%%
30409@%%%%%%%%%%%%%%%%%%%%%Jj%%%%%%%%%%%%%%%%%%%%%%%%%%%%%%%%%%%%%%%%%%%%%%%%%%%
30333@%%%%%%%%%%%%%%%%%%%%%%%%%%%%%%%%%%%%%%%%%%%%%%%%%%%%%%%%%%%%%%%%%%%%%%%%%%
30258@%%%%%%%%%%%%%%%%%%%%%%%J%j%%%%%%%%%%%%%%%%%%%%%%%%%%%%%%%%%%%%%%%%%%%%%%%%
30183@%%%%%%%%%%%%%%%%%%%%%%%%%%%%%%%%%%%%%%%%%%%%%%%%%%%%%%%%%%%%%%%%%%%%%%%%%%
30107@%%%%%%%%%%%%%%%%%%%%%%%%%%%%%%%%%%%%%%%%%%%%%%%%%%%%%%J%%%j%%%%%%%%%%%%%%%
30032@%%%%%%%%%%%%%%%%%%%%%%%%%%%%%%%%%%%%%%%%%%%%%%%%%%%%%%%%%%%%%%%%%%%%%%%%%%
29957@%%%%%%%%%%%%%%%%%%%%%%%%%%%%%%%%%%%%%%%%%%%%%%%%%%%%%%%%%%%%%%%%%%%%%%%%%%
29881@%%%%%%%%%%%%%%%%%%%%%%%%%%j%J%%%%%%%%%%%%%%%%%%%%%%%j%%J%%%%%%%%%%%%%%%%%%
29806@%%%%%%%%%%%%%%%%%%%%%%%%%%%%%%%%%%%%%%%%%%%%%%%%%%%%%%%%%%%%%%%%%%%%%%%%%%
29731@%%%%%%%%%%%%%%%%%%%%%%%%%%%%%%%%%%%%%%%%%%%%%%%%%%%%%%%%%%%%%%%%%%%%%%%%%%
29655@%%%%%%%%%%%%%%%%%%%%%%%%%%%%%%%%%%%%%%%%%%%%%%%%%%%%%%%%%%%%%%%%%%%%%%%%%%
29580@%%%%%%%%%%%%%%%%%%%%%%%%%%%%%%%%%%%%%%%%%%%%%%%%%%%%%%%%%%%%%%%%%%%%%%%%%%
29505@%%%%%%%%%%%%%%%%%%%%%%%%%%%%%%%%%%%%%%%%%%%%%%%%%%%%%%%%%%%%%%%%%%%%%%%%%%
29429@%%%%%%%%%%%%%%%%%%%%%%%%%%%%%%%%%%%%%%%%%%%%%%%%%%%%%%%%%%%%%%%%%%%%%%%%%%
29354@%%%%%%%%%%%%%%%%%%%%%%%%%%%%%%%%%%%%%%%%%%%%%%%%%%%%%%%%%%%%%%%%%%%%%%%%%%
29279@%%%%%%%%%%%%%%%%%%%%%%%%%%%%%%%%%%%%%%%%%%%%%%%%%%%%%%%%%%%%%%%%%%%%%%%%%%
29203@%%%%%%%%%%%%%%%%%%%%%%%%%%%%%%%%%%%%%%%%%%%%%%%%%%%%%%%%%%%%%%%%%%%%%%%%%%
29128@%%%%%%%%%%%%%%%%%%%%%%%%%%%%%%%%%%%%%%%%%%%%%%%%%%%%%%%%%%%%%%%%%%%%%%%%%%
29053@%%%%%%%%%%%%%%%%%%%%%%%%%%%%%%%%%%%%%%%%%%%%%%%%%%%%%%%%%%%%%%%%%%%%%%%%%%
28977@%%%%%%%%%%%%%%%%%%%%%%%%%%%%%%%%%%%%%%%%%%%%%%%%%%%%%%%%%%%%%%%%%%%%%%%%%%
28902@%%%%%%%%%%%%%%%%%%%%%%%%%%%%%%%%%%%%%%%%%%%%%%%%%%%%%%%%%%%%%%%%%%%%%%%%%%
28827@%%%%%%%%%%%%%%%%%%%%%%%%%%%%%%%%%%%%%%%%%%%%%%%%%%%%%%%%%%%%%%%%%%%%%%%%%%
28752@%%%%%%%%%%%%%%%%%%%%%%%%%%%%%%%%%%%%%%%%%%%%%%%%%%%%%%%%%%%%%%%%%%%%%%%%%%
28676@%%%%%%%%%%%%%%%%%%%%%%%%%%%%%%%%%%%%%%%%%%%%%%%%%%%%%%%%%%%%%%%%%%%%%%%%%%
28601@%%%%%%%%%%%%%%%%%%%%%%%%%%%%%%%%%%%%%%%%%%%%%%%%%%%%%%%%%%%%%%%%%%%%%%%%%%
28526@%%%%%%%%%%%%%%%%%%%%%%%%%%%%%%%%%%%%%%%%%%%%%%%%%%%%%%%%%%%%%%%%%%%%%%%%%%
28450@%%%%%%%%%%%%%%%%%%%%%%%%%%%%%%%%%%%%%%%%%%%%%%%%%%%%%%%%%%%%%%%%%%%%%%%%%%
28375@%%%%%%%%%%%%%%%%%%%%%%%%%%%%%%%%%%%%%%%%%%%%%%%%%%%%%%%%%%%%%%%%%%%%%%%%%%
28300@%%%%%%%%%%%%%%%%%%%%%%%%%%%%%%%%%%%%%%%%%%%%%%%%%%%%%%%%%%%%%%%%%%%%%%%%%%
28224@%%%%%%%%%%%%%%%%%%%%%%%%%%%%%%%%%%%%%%%%%%%%%%%%%%%%%%%%%%%%%%%%%%%%%%%%%%
28149@%%%%%%%%%%%%%%%%%%%%%%%%%%%%%%%%%%%%%%%%%%%%%%%%%%%%%%%%%%%%%%%%%%%%%%%%%%
28074@%%%%%%%%%%%%%%%%%%%%%%%%%%%%%%%%%%%%%%%%%%%%%%%%%%%%%%%%%%%%%%%%%%%%%%%%%%
27998@%%%%%%%%%%%%%%%%%%%%%%%%%%%%%%%%%%%%%%%%%%%%%%%%%%%%%%%%%%%%%%%%%%%%%%%%%%
27923@%%%%%%%%%%%%%%%%%%%%%%%%%%%%%%%%%%%%%%%%%%%%%%%%%%%%%%%%%%%%%%%%%%%%%%%%%%
27848@%%%%%%%%%%%%%%%%%%%%%%%%%%%%%%%%%%%%%%%%%%%%%%%%%%%%%%%%%%%%%%%%%%%%%%%%%%
27772@%%%%%%%%%%%%%%%%%%%%%%%%%%%%%%%%%%%%%%%%%%%%%%%%%%%%%%%%%%%%%%%%%%%%%%%%%%
27697@%%%%%%%%%%%%%%%%%%%%%%%%%%%%%%%%%%%%%%%%%%%%%%%%%%%%%%%%%%%%%%%%%%%%%%%%%%
27622@%%%%%%%%%%%%%%%%%%%%%%%%%%%%%%%%%%%%%%%%%%%%%%%%%%%%%%%%%%%%%%%%%%%%%%%%%%
27546@%%%%%%%%%%%%%%%%%%%%%%%%%%%%%%%%%%%%%%%%%%%%%%%%%%%%%%%%%%%%%%%%%%%%%%%%%%
27471@%%%%%%%%%%%%%%%%%%%%%%%%%%%%%%%%%%%%%%%%%%%%%%%%%%%%%%%%%%%%%%%%%%%%%%%%%%
27396@%%%%%%%%%%%%%%%%%%%%%%%%%%%%%%%%%%%%%%%%%%%%%%%%%%%%%%%%%%%%%%%%%%%%%%%%%%
27320@%%%%%%%%%%%%%%%%%%%%%%%%%%%%%%%%%%%%%%%%%%%%%%%%%%%%%%%%%%%%%%%%%%%%%%%%%%
27245@%%%%%%%%%%%%%%%%%%%%%%%%%%%%%%%%%%%%%%%%%%%%%%%%%%%%%%%%%%%%%%%%%%%%%%%%%%
27170@%%%%%%%%%%%%%%%%%%%%%%%%%%%%%%%%%%%%%%%%%%%%%%%%%%%%%%%%%%%%%%%%%%%%%%%%%%
27094@%%%%%%%%%%%%%%%%%%%%%%%%%%%%%%%%%%%%%%%%%%%%%%%%%%%%%%%%%%%%%%%%%%%%%%%%%%
27019@%%%%%%%%%%%%%%%%%%%%%%%%%%%%%%%%%%%%%%%%%%%%%%%%%%%%%%%%%%%%%%%%%%%%%%%%%%
26944@%%%%%%%%%%%%%%%%%%%%%%%%%%%%%%%%%%%%%%%%%%%%%%%%%%%%%%%%%%%%%%%%%%%%%%%%%%
26868@%%%%%%%%%%%%%%%%%%%%%%%%%%%%%%%%%%%%%%%%%%%%%%%%%%%%%%%%%%%%%%%%%%%%%%%%%%
26793@%%%%%%%%%%%%%%%%%%%%%%%%%%%%%%%%%%%%%%%%%%%%%%%%%%%%%%%%%%%%%%%%%%%%%%%%%%
26718@%%%%%%%%%%%%%%%%%%%%%%%%%%%%%%%%%%%%%%%%%%%%%%%%%%%%%%%%%%%%%%%%%%%%%%%%%%
26642@%%%%%%%%%%%%%%%%%%%%%%%%%%%%%%%%%%%%%%%%%%%%%%%%%%%%%%%%%%%%%%%%%%%%%%%%%%
26567@%%%%%%%%%%%%%%%%%%%%%%%%%%%%%%%%%%%%%%%%%%%%%%%%%%%%%%%%%%%%%%%%%%%%%%%%%%
26492@%%%%%%%%%%%%%%%%%%%%%%%%%%%%%%%%%%%%%%%%%%%%%%%%%%%%%%%%%%%%%%%%%%%%%%%%%%
26417@%%%%%%%%%%%%%%%%%%%%%%%%%%%%%%%%%%%%%%%%%%%%%%%%%%%%%%%%%%%%%%%%%%%%%%%%%%
26341@%%%%%%%%%%%%%%%%%%%%%%%%%%%%%%%%%%%%%%%%%%%%%%%%%%%%%%%%%%%%%%%%%%%%%%%%%%
26266@%%%%%%%%%%%%%%%%%%%%%%%%%%%%%%%%%%%%%%%%%%%%%%%%%%%%%%%%%%%%%%%%%%%%%%%%%%
26191@%%%%%%%%%%%%%%%%%%%%%%%%%%%%%%%%%%%%%%%%%%%%%%%%%%%%%%%%%%%%%%%%%%%%%%%%%%
26115@%%%%%%%%%%%%%%%%%%%%%%%%%%%%%%%%%%%%%%%%%%%%%%%%%%%%%%%%%%%%%%%%%%%%%%%%%%
26040@%%%%%%%%%%%%%%%%%%%%%%%%%%%%%%%%%%%%%%%%%%%%%%%%%%%%%%%%%%%%%%%%%%%%%%%%%%
25965@%%%%%%%%%%%%%%%%%%%%%%%%%%%%%%%%%%%%%%%%%%%%%%%%%%%%%%%%%%%%%%%%%%%%%%%%%%
25889@%%%%%%%%%%%%%%%%%%%%%%%%%%%%%%%%%%%%%%%%%%%%%%%%%%%%%%%%%%%%%%%%%%%%%%%%%%
25814@%%%%%%%%%%%%%%%%%%%%%%%%%%%%%%%%%%%%%%%%%%%%%%%%%%%%%%%%%%%%%%%%%%%%%%%%%%
25739@%%%%%%%%%%%%%%%%%%%%%%%%%%%%%%%%%%%%%%%%%%%%%%%%%%%%%%%%%%%%%%%%%%%%%%%%%%
25663@%%%%%%%%%%%%%%%%%%%%%%%%%%%%%%%%%%%%%%%%%%%%%%%%%%%%%%%%%%%%%%%%%%%%%%%%%%
25588@%%%%%%%%%%%%%%%%%%%%%%%%%%%%%%%%%%%%%%%%%%%%%%%%%%%%%%%%%%%%%%%%%%%%%%%%%%
25513@%%%%%%%%%%%%%%%%%%%%%%%%%%%%%%%%%%%%%%%%%%%%%%%%%%%%%%%%%%%%%%%%%%%%%%%%%%
25437@%%%%%%%%%%%%%%%%%%%%%%%%%%%%%%%%%%%%%%%%%%%%%%%%%%%%%%%%%%%%%%%%%%%%%%%%%%
25362@%%%%%%%%%%%%%%%%%%%%%%%%%%%%%%%%%%%%%%%%%%%%%%%%%%%%%%%%%%%%%%%%%%%%%%%%%%
25287@%%%%%%%%%%%%%%%%%%%%%%%%%%%%%%%%%%%%%%%%%%%%%%%%%%%%%%%%%%%%%%%%%%%%%%%%%%
25211@%%%%%%%%%%%%%%%%%%%%%%%%%%%%%%%%%%%%%%%%%%%%%%%%%%%%%%%%%%%%%%%%%%%%%%%%%%
25136@%%%%%%%%%%%%%%%%%%%%%%%%%%%%%%%%%%%%%%%%%%%%%%%%%%%%%%%%%%%%%%%%%%%%%%%%%%
25061@%%%%%%%%%%%%%%%%%%%%%%%%%%%%%%%%%%%%%%%%%%%%%%%%%%%%%%%%%%%%%%%%%%%%%%%%%%
24985@%%%%%%%%%%%%%%%%%%%%%%%%%%%%%%%%%%%%%%%%%%%%%%%%%%%%%%%%%%%%%%%%%%%%%%%%%%
24910@%%%%%%%%%%%%%%%%%%%%%%%%%%%%%%%%%%%%%%%%%%%%%%%%%%%%%%%%%%%%%%%%%%%%%%%%%%
24835@%%%%%%%%%%%%%%%%%%%%%%%%%%%%%%%%%%%%%%%%%%%%%%%%%%%%%%%%%%%%%%%%%%%%%%%%%%
24759@%%%%%%%%%%%%%%%%%%%%%%%%%%%%%%%%%%%%%%%%%%%%%%%%%%%%%%%%%%%%%%%%%%%%%%%%%%
24684@%%%%%%%%%%%%%%%%%%%%%%%%%%%%%%%%%%%%%%%%%%%%%%%%%%%%%%%%%%%%%%%%%%%%%%%%%%
24609@%%%%%%%%%%%%%%%%%%%%%%%%%%%%%%%%%%%%%%%%%%%%%%%%%%%%%%%%%%%%%%%%%%%%%%%%%%
24533@%%%%%%%%%%%%%%%%%%%%%%%%%%%%%%%%%%%%%%%%%%%%%%%%%%%%%%%%%%%%%%%%%%%%%%%%%%
24458@%%%%%%%%%%%%%%%%%%%%%%%%%%%%%%%%%%%%%%%%%%%%%%%%%%%%%%%%%%%%%%%%%%%%%%%%%%
24383@%%%%%%%%%%%%%%%%%%%%%%%%%%%%%%%%%%%%%%%%%%%%%%%%%%%%%%%%%%%%%%%%%%%%%%%%%%
24308@%%%%%%%%%%%%%%%%%%%%%%%%%%%%%%%%%%%%%%%%%%%%%%%%%%%%%%%%%%%%%%%%%%%%%%%%%%
24232@%%%%%%%%%%%%%%%%%%%%%%%%%%%%%%%%%%%%%%%%%%%%%%%%%%%%%%%%%%%%%%%%%%%%%%%%%%
24157@%%%%%%%%%%%%%%%%%%%%%%%%%%%%%%%%%%%%%%%%%%%%%%%%%%%%%%%%%%%%%%%%%%%%%%%%%%
24082@%%%%%%%%%%%%%%%%%%%%%%%%%%%%%%%%%%%%%%%%%%%%%%%%%%%%%%%%%%%%%%%%%%%%%%%%%%
24006@%%%%%%%%%%%%%%%%%%%%%%%%%%%%%%%%%%%%%%%%%%%%%%%%%%%%%%%%%%%%%%%%%%%%%%%%%%
23931@%%%%%%%%%%%%%%%%%%%%%%%%%%%%%%%%%%%%%%%%%%%%%%%%%%%%%%%%%%%%%%%%%%%%%%%%%%
23856@%%%%%%%%%%%%%%%%%%%%%%%%%%%%%%%%%%%%%%%%%%%%%%%%%%%%%%%%%%%%%%%%%%%%%%%%%%
23780@%%%%%%%%%%%%%%%%%%%%%%%%%%%%%%%%%%%%%%%%%%%%%%%%%%%%%%%%%%%%%J%%j%%%%%%%%%
23705@%%%%%%%%%%%%%%%%%%%%%%%%%%%%%%%%%%%%%%%%%%%%%%%%%%%%%%%%%%%%%%%%%%%%%%%%%%
23630@%%%%%%%%%%%%%%%%%%%%%%%%%%%%%%%%%%%%%%%%%%%%%%%%%%%%%%%%%%%%%%%%%%%%%%%%%%
23554@%%%%%%%%%%%%%%%%%%%%%%%%%%%%%%%%%%%%%%%%%%%%%%%%%%%%%%%%%%%%%%%%%%%j%J%%%%
23479@%%%%%%%%%%%%%%%%%%%%%%%%%%%%%%%%%%%%%%%%%%%%%%%%%%%%%%%%%%%%%%%%%%%%%%%%%%
23404@%%%%%%%%%%%%%%%%%%%%%%%%%%%%%%%%%%%%%%%%%%%%%%%%%%%%%%%%%%%%%%%%%%%%%%%%%%
23328@%%%%%%%%%%%%%%%%%%%%%%%%%%%%%%%%%%%%%%%%%%%%%%%%%%%%%%%%%%%%%%%%J%j%J%j%%%
23253@%%%%%%%%%%%%%%%%%%%%%%%%%%%%%%%%%%%%%%%%%%%%%%%%%%%%%%%%%jJ%%%%%%%%%%%%%%%
23178@%%%%%%%%%%%%%%%%%%%%%%%%%%%%%%%%%%%%%%%%%%%%%%%%%%%%%%%%%%%%%%%%%%jJ%%%%%%
23102@%%%%%%%%%%%%%%%%%%%%%%%%%%%%%%%%%%%%%%%%%%%%%%%%%%%%%%%%%%%%%%%%%%%%%%%%%%
23027@%%%%%%%%%%%%%%%%%%%%%%%%%%%%%%j%J%%%%%%%%%%%%%%%%%%%%%%%%%%%%%%%%%%%%%%%%%
22952@%%%%%%%%%%%%%%J%%%%jJ%%%%%%%%J%J%%%%J%%%%%%%%j%%j%%%%%%%%%%j%%%%%%%%%J%%%%
22876BJ%%J%%%J%%%%j%j%j%%%%%%%%j%%%%jJ%%%%%J%%%%%%%%%J%%%%J%J%%%%j%%j%%%j%%%j%%%
22801A%%%%%%%%%%%J%%%%J%%J%%%%J%%%%%j%j%%j%%j%Jj%%%%%%%%%%%%%j%%%%%%%%%%J%%j%%%%
22726@%%%%%%%%%%%%%%%%%%%%%%%%%%%%%%%%%%%%%%%%%%%%%%%%%%%%%%%%%%%%%%%%%%%%%%%j%J
22650@%%%%%%%%%%%%%%%%%%%%%%%%%%%%jJ%%%jJ%%%%%%%%%%%%%%%%%%j%J%%%%%%%%%%%%%%%%%%
22575@%%%%%%%%%%%%%%%%%%%%%%%%%%%%%%%%%%%%%%%%%%%%%%%%%%%%%%%%%%%%%%%%%%%%%%%%%%
22500@%J%%%%%%%%%%%%%j%Jj%%%%%%%%%%%%%%%%%%%%%%%%%%%%%%%%%%%%%%%%%Jj%%%%%%%%%%%%
22424@%%%%%%%%%%%%%%%%%%%%%%%%%%%%%%%%%%%%Jj%%%%%%%%%%%%%%%%%%%Jj%%%%%%%%%J%%%%j
22349@%%%%%%%%%%%%%%Jj%%%%%%%%%%%%%%%%%%%%%%%%%%%J%j%%%%%%%%%%%%%%%%%%%%%%%%%%%%
22274@%%%%%%%%%%%%%%%J%%%%%%%%%%%j%J%%%%%%j%%%%J%%%j%%%%%%%%J%%%%%%j%J%%j%%J%%%%
22199Aj%%%%J%j%J%%%%j%J%%%%%%%%%%%%%%%%%%%%%%%%%%j%J%%%j%%%%%%%%%J%%%%%%%%%%%%%%
22123A%%%%%%%%%%%%%%%%%%%%%%%%Jj%%%%%%%%%J%%j%%%%%%%%%%%%%%%%%%%%%%%%%J%%%%jJ%j%
22048A%J%%%%j%%%%%%%%%%%%%%%J%%%%%j%%%%J%%%%%%%%J%%%%j%%jJ%%%%jJ%j%%%%J%%%%%%%%%
21973B%%%%%%%%%%%%%%%%%%%%%%%%%%%%%%%%%%%%J%%%%%%j%%%%%%%%%%%%%%%%%%Jj%Jj%%%%%Jj
21897B%%%%%%%%%%%%J%%%%%%%%%%%%%j%J%%%%%%%%%%%%%%%%%%jJ%%%J%j%%%%%%%%%%%%%%J%j%%
21822Cj%%%J%%%J%j%%%%%%%%%%%%%%%J%%%%%%jJ%%%j%%%%%%%%%%Jj%%%J%%j%%%%J%j%%%%%%%%%
21747C%%%%%J%%%%%%%%%%%%%%%%%%%%%%%%%%%%%%%%%%%%%J%j%%%%%%%%J%%j%%%%%%%J%%%%%%j%
21671D%%%%%J%%%%%%%%%%%%%%%%%%%%%%%%%%%%%%%%%%%%%%%%%%%%%%%J%%j%J%%%%%%%%J%%j%J%
21596G%%%%%J%%%%J%%J%%J%J%JJ%JJ%JJJ%%%j%j%j%j%%j%%j%Jj%%%j%J%j%%%%J%%%%%J%J%%%j%
21521A4%%jJ%%%%%%%%%%%%%%J%j%%%%%%Jj%J%%%%JJ%J%JJKJKJKJJ%%%jjkjkjkjjjjjj%j%%%%%j
21446A2%%%%%J%%%%%%J%J%%%%JJ%JJ%J%J%J%J%%%jj%jjj%jj%j%j%j%%%%%%%J%%%%%j%%j%j%j%%
21372A0%%%%%%%%%%%%%%%%%%%%%%%%%%%%%J%J%%%%%%J%%%J%%%%%%%j%%jj%%%%%j%%%J%%%%%%%%
21298A1%%%%%%%%%%%%%%%%j%J%%%%%%%%%J%%%%%%%%%%%%%%%%%%%%%%%%J%%%j%J%%%%%%%jJ%%%%
21223A3%%%%%%%%%%%%%%%Jj%%%%%J%%%%%%%J%%%j%%J%%%%%jJ%%%%%%%%%%%%J%%%%%%%%%%%%%%%
21149A6%%%%%%%%%%%%%%J%%%%%%%%J%%%%%%%J%j%%%%%%%%J%%%J%%jJ%%%j%J%%%%%%%%%%J%%%%%
21075B1%%J%%j%%J%%%%%%%%J%%jJ%%%J%j%%%J%%%%%%%%%J%%%%J%%%%j%%J%%J%%J%%j%J%%J%%%%
21000B9%%%%%%%J%%%%%J%%%%%%J%%J%J%%%%%J%%%%jJ%%J%%J%J%%%J%J%%%J%%J%J%J%%%%J%%%J%
20926D6%J%%%%%J%%%%%J%J%J%JJ%JJJJ%JJJKJKKKJKKLKKLLKJKJJJ%%%%%J%JJKJKKJKJK%%%jkj%
20852A07jjjj%%JJJJJJJKJKLKLKLLMMMMNMNOOPPPQQRJ0J0J1J1J2J3J4J4J5J7J8K0K1K4K6K8L2
20797E15L4L8M4M9N5O4P2Q3R3J07J21J38J56J75J95K15K33K46K51K41K11J54P5j8j04j67k02
20769C074k12k05j88j69j50j33j20j08r8q8p7o5n1m0k6j5lPJ4K0K3K2J9J1Krj7k3k4k0j4nNJ5
20735A352K5L3M2M6N0N0M6L9K9J8Qjj0j6k5l2l7m0l9l3k3j3lOJ2J6J6J5J3J0PNPJ1K0L2M6O5Q2
20695A829J03J24J48J72J97K23K48K72K94L11L21L18K98K49J66M4j07k61l94m78n05m85m33l68
20671B286l04k45j92j50j15q7o4m5k9j4mPJ5K3K9L2L3L0K3J5Lrj8k4k6k3j7qLJ5K7L8N0O0P1P9
20634A465Q7R3R7R9R8R8R7R6R5R1Q2O0K3l2r9j66k19k46k46k28k02j72j43j19r7q1o6n4m6l7l2
20603B96k7k2k1j7j5j3j2j0j0qrppqoonmlljJJKLNOOQRRJ1J1J1J1J0PM%mj0j3j6j7j7j6j4j3j1
20553F6rqponmlkkjj%j%j%%%J%%%%%%jjjjklkklkkkjkjjj%jj%j%j%%j%%%%%%%%%%%%%j%%%%%%%
20478a7%J%%%%%J%%%%%%j%%%%%%%j%%%J%%%%%%%%%%%%J%%J%%%%%%%%%%%%%%%%%%J%%%%%%%%%%%
20404a3%J%%%%%%JJ%%%J%%J%J%J%JJ%JJJKJKKLLLMLLLLJjklmnmmlkkkjj%j%%%%%%%J%JJ%JJJJK
20330FKKKLLLLMLKKjjmmnnmmlkkkjjj%j%%j%%%%j%%%Jj%%%j%%%%j%%%%%%%%%%%%%%%Jj%%%%%J%
20254i%%%%j%J%%%%%%%%%%%%%%%%%%%%%%%J%%%%%j%J%j%J%%%%%%%%%%%%%%%%%%%%%%%%%j%%J%%
20179h%%%%%%%%%%%%%J%%%%%%%%%%%%%%%%%%%%%%%%%%%%%%%%%%%%%%%%%%%%%%%%J%%%%%%%%%%%
20104f%%%%%%%%%%%%%%J%%%%%%%%%%%%%j%%J%%%%%%%%%J%%%%%%%%%J%%J%J%%%J%JJJKJJKJKJJ%
20028A4jjlkkkjjj%%j%%%jJ%%%%%%%%%%J%%%J%%JJ%KJJKKJJKJJ%jkkkjjj%j%J%%JJJJJJJJ%%%j
19954A4%jjjjjjj%jjj%%%j%%%%j%%%%%%%%%%%J%%%J%%%%%%%J%J%J%%j%%%%j%%%%%%%%%%%J%%%J
19880G%J%J%JJJJJJKJKJJJj%kjkkkjkjjjj%j%j%j%%j%%%%%%%%%%%J%%%J%J%J%J%%%%%%J%J%J%J
19805A1%jj%jjjkjj%j%j%%%j%%j%%%%%%%%%%%%J%j%%J%%%%%%%%%%%%%%%j%%%J%%j%J%%%%%%j%%
19730b%%%%%%%J%%%j%%%%%%J%%%j%%%%%%%%%%%%%%%%%%%%%%%%%%%%%%%%%%%%%%J%%%%%%%j%%%%
19655b%%%J%%%%%j%%%%%%J%%%%%j%J%j%%%%J%j%%%%%%%%Jj%%%%J%%%%%%%%%%%%j%%J%j%%%%J%%
19580a%%%%%%%%%%%%%%j%%%J%%%%%%%%%%%%%%%%%J%j%%%%%%%%%%%%%%%%%%%%%%%%%%%%%%%Jj%%
19504a%%%%%%%%%%J%%j%%%%%%%%%%%%%%%%%%%%%%%%J%%%%%%%j%%%%%%%%%%%%%%%%%%%%%%%%%%%
19429a%%%%%%%%%%%J%%%%j%%%%%Jj%%%Jj%%%%%%%%%%J%j%%%%%%%%J%%%%%%%j%%%J%%%j%%%%%%J
19354@%%%%j%%%%%%%%%%%J%%%%%%%%%%%%%%%j%%%J%%%jJ%%%%%%%%%%%%%%%%%%%%%%%%%%%%%%%%
19278@%%%%%%%%%%%%%%%%j%%%%%J%%%%%%%%%%%%%%%%%%%%%%%%j%%%%%%J%%%%%%%%%%%%%%%%%%%
19203@%%%%%%%%%%%%%%%%%%%%%%%%%J%%%j%%%%%%%%%%%%%%%%%%%%j%J%%%%%%%%%%%%%%%%%%%%%
19128@%%%%%%%%%%%%%%%%%%%%%%%%%%%%%%%%%%%%%%%%%%%%%%%%%%%%%%%%%%%%%%%%%%%%%J%j%%
19052@%%%%%%%%%%%%%%%%%%%%%%%%%%%%%%%%%%%%%%%%%%%J%j%%%%%%%%%%%%%%Jj%%%%%%%%%%J%
18977Aj%%%%%%%%%%J%j%%%%%%%%%%%%%%%%%%%%%%%%%%%%%%%%%%%%%%%J%%%%%%%%%%%%%%J%%%%J
18902C%%J%%J%%J%%%J%%%j%j%j%j%%%j%%%%%%%%%%%j%J%%%J%%J%J%%J%Jj%%j%j%j%%%%j%j%%%%
18826A%%%j%%J%%%%%%j%%J%%%j%%J%%%%%%j%%Jj%%J%%%j%%%%%J%j%%J%%%%%%%j%%%%%%%%J%%%%
18751A%%%J%%%%%%%%J%%J%%%%JJJ%J%J%%%jj%%j%j%j%%j%%%%%%%%%%%%%%%J%%J%J%%J%JJ%%%%j
18676H%j%jj%j%j%j%%%%%j%%%%%j%%J%%j%J%j%%%%%%%%%%%%%%%%%%%%%%%%%%%%%%%%%%%%%%%%%
18600@%%%%%%%%%%%%%%%%%%%J%%j%%J%%j%%%%%%%%%%%%%%%%%%%%%%%%%%%%%%%%%%%%%%%%%%%%%
18525@%%%%%%%%%%%%%%%%%%%%%%%%J%%%j%%%%%%%%%%%%%%%%%%%%%%%%%%%%%%%%%%%%%%%%%%%%%
18450@%%%%%%%%Jj%%%%%%%%%%%Jj%%%%%%%%%%%%%%%%%%%J%%j%%%%Jj%%%J%%%j%%%%%%%J%%j%%%
18374@%%%%%%%%%%%%%%%%%%%%%%%%%%%%%%%%%%%%Jj%%%%J%%%%%j%%%%%%%%%%%%%%%%%%%J%j%J%
18299A%%%%%j%%%%%%%%%%Jj%%%%%%%%%%%%%%%%%%%%%%%%%%%%%%%%%%%%%%%%%%%%%%%%%%%%%%%%
18224@%%%%%%%%%%%%%%%%%%%%%%%%%%%%%%%%%%%%%%%%%%%%%%%%%%%%%%%%%%Jj%%%%%%%%%%%%%%
18148@%%%%%%%j%%%%Jj%%%J%%%%Jj%%%%%%%%%%%%%%%%%%%%%%Jj%%%%%%%%%%%%%%%%J%j%%%%%J%
18073Aj%%%%%%%%%%%%%%%%%%%%%%%%%%%%%%%%%%%%%%%%%%%%%%%%%%%%%%%%%%Jj%%J%%j%%%%%%%
17998@j%%%J%%%%%%%%%%%%Jj%%%%%J%%j%%%%%%%%%%%%%%%%%%%%%%%%jJ%%%%%%%%%%%%%%%%%%%%
17922@%%%%%%%%%%%%%%%%%%%%%%%%%%%%%%Jj%%%%%%%%%%%%%%%%%%%%%%%Jj%%%%%%%%%%%J%j%%J
17847A%%%%%%%%%%%%%%%%J%%%%%J%%J%%%%JJ%%J%J%%%%%j%jj%j%j%j%%%j%%%%%%%%%j%%%%J%%%
17772AjJ%%%%j%%%%%J%%%%%%%%%%%%%%%%%%%%J%%%%%%J%%J%J%%JJ%J%J%%j%jj%jj%j%%j%%%%%%
17697B%j%%%%%%%%%%%%%%%%%%%%%%%%%%%%%%%J%%%%%%%J%%J%J%J%%J%%%%j%j%j%j%j%%%j%%%%%
17621Aj%%%%%%%%%%J%%%%j%J%j%%%%%%%%%%%J%%%%%%%%%%%%%%%%%%%%%J%%J%%%J%%J%%J%%%j%%
17546Ej%%j%j%%j%%%%%%%%%%%j%%%%%%%%%%%%%%%J%%%j%%%%%%%%%%%%%%%%%%%%%J%j%%%%%%j%%
17471aJ%%%%%%%%J%%j%%%%%%%%%%%%%%%%%%%%%%%%%%%%%J%%%%%j%%%%%%%%%%%%%%%%%%%%j%J%%
17395@%%%%%%%%%%%%%%%%%%%%%%%%%%%%%%%%%%%%%%%%%%%%%%%%%%%%%%%%%%%%%%%%%%%%%%%%%%
17320@%%%%%%%%%%%%%%%%%%%%%%%%%%%%%%%%%%%%%%%%%%%%%%%%%Jj%%%%%%%%%%%%%%%%%%%%%%%
17245@%%%%%%%%%%%%%%%j%%%J%%%%%%%%%%%%%%%%%%%%%j%J%%%%%%%%%%%%%%%%%%%%%%%%%%%%%%
17169@%%%%%%%%%%%J%j%%%%%%%%%%%%%%%%%%%%%%%%%%jJ%%%%%%%%%%%%%%%%%%%%%%%%%%%%%%%%
17094@%%%%%jJ%%%%%%%%%%%J%%j%%%%%%%%%%%%%%%%%%%%%%%%%%%%%%%%%%%%%%%%%%%%%%%%%%%%
17019@%%%%%%%%%%%%%%%%%%%%%%%%%%%%%%%%%J%%%%j%%%%%%%%%%%%%%%%%%%%%%%%%%%%%%%%%%%
16943@%%%%%%%%%J%%%j%%%%%%%%%%%%%%%%%%%%%%%%%J%j%%%%%%J%%%j%%%%%%%%%%%%%%%%%%J%%
16868A%%%%%%%%%%%%Jj%J%%%%%%%%j%%%%%j%%%%%%%%%%%%%%%%%%%%J%%%%j%J%%j%%Jj%%%%%%%%
16793@%%%%%%%%%%%%%%%%%%%%%%%%%%%%%%%%%%%%%%%%%%%%%j%J%%%%%%%%%%%%%%%%%%%%%%%%%%
16717@%%%%%%%%%%%%%%%%%%J%j%%%%%%%%J%j%%%%%%%%%%%%%%%%%%%%%%%%%%%%%%%%%%%%%%%%%%
16642@%%%%%%%j%J%jJ%%%%%%%%%%%%%%%%%%%%%%%%%%%%%%%%%%%%%%%%%%%%%%%j%J%%%jJ%%%%%%
16567@jJ%j%%%%%%%%%%J%%%%%%%%%%%%%%%%%j%%J%%%%%%%%%%%%%%%%%%%%%%%%j%%%%%%J%%%%%%
16491@%%%%%%%%jJ%%%%%%%%%%%%%%%%%%%%%%%%%%%%%%%%%%%%%%%%%%%%j%%%Jj%%%%%%%%J%%%%%
16416@%%%%%%%%%%%%j%%J%%%%%%%%j%%%%%%%%%%%%%%%%%%%%%%%%J%%j%%%%%%%%%J%%j%%%%%%%%
16341a%%%%%%%%%%%%%%%%%%%%%%%%%%%%%%%%%%%%%%%Jj%%%%%%%%%%%J%%%%%%%%%%J%%%%%J%J%%
16265CJJJJJJJKKKKLLMNMOOOPOOMK%lnoqpponnmllkkjjjjj%j%%%%j%%%%%%J%JJ%JJJJ%%J%JJJK
16190B0JJK%JJ%J%J%%%%jJ%JJKKKLLLLMMMNMMLJJj%kkkllmmnnmmkkkkjkj%j%%J%J%%J%%%j%jkj
16116B4kkjkjjj%j%%jjjj%j%%%%%%%J%J%JJJKJJKLKLLMNNNOPOONMJjlopqqpoommlljkkjjjj%j%
16041Hj%j%j%%%j%%%%j%%%%%j%%%%%%%%%%%%%%%%%%%%%%%j%%%%%%%%%%%%%%%%%%%%%%%%%%%jJ%
15966A%%%%%%%%%%%%%%%j%%%Jj%%%%J%%%%%j%%%J%%%%j%%%J%%%%j%J%j%%%%%%J%%%%%%j%J%%%%
15891A%%%%%%%%%%%%%%%%%j%%%%J%j%%%%%%%%%%%%%%%%%J%j%%%J%%%%%j%%%%%%%%%%%%%%%%%%%
15816@%%%%%%%%%%%%%%%%%%%%%%%%%%%%%%%%%%%%%%%%%%%%%%%%%%%%%%%%%%%%%%%%%%%%%%%%%%
15740@%%%%%%%%%%%%%%%%%%%%%%%%%%%%%%%%%%%%%%%%%%%%%%%%j%J%%%%%%%%%%%%%%%%%%J%%j%
15665@%%%%%%%%%%%%%%%%%j%%%%%J%%%%%%%%%%%%%%%%%%%%%%%%%%%%%%%%%%%%%%%%J%%%j%%%%%
15590@%%%%%%%%%j%%%%J%%%%%%%%%%%%%%%%%%%%%%%%%%%%%%%jJ%%%%%%%j%%JjJ%%%%%%j%%J%%%
15514@%%%%%%j%%J%%jJj%J%%%%%%%%%%%%%%%%%%%%%%%%%jJ%%%%%%%%%%%%%%%%%%%%%%%%%%%%%%
15439@%%%%%%%%%%%%%%j%%%J%%%%%%%%%%%%%%%%%%%%%%%%%%J%j%%%%%%%%%%%%J%%jJ%j%%%J%%%
15364A%j%%%%%%%%%%%%%%%%%%%%%%%%%%%%%%%%%%j%J%%%%%%%%%%%%%%%J%j%%%%%%J%%%%%j%%%%
15288@%%%%%%%%%%%%%%%%%%%%%%%%%%%%%%%%%%%%%%%%%%%%%%%%J%%%%%J%%%%%Jj%%%j%%%%j%%%
15213@%%%%%%%%%%%%%%%%%%%%%%%%%%%%%%%%%%%%%%%%%%%%%%%%%%%%%%%%%%%%%%%%%%%%%%%%%%
15138@%%jJ%%%%%%%%%%%%%%%%%Jj%%%%%j%%J%%%%%%%%%%%%%%%%%%j%J%%%%%%%%%%%%%%%%%%%%%
15062@%%%%%%%%%%j%%%J%%%%%%%%%%%%%%%%%%%%%%%%%%%%%%%%%%%%%%%%%%%%%%%%%%%%%%%%%%%
14987@%%%%%%%%%%%%%%%%%%%%%%%%%%%%%%%J%j%%%%%%%%%%%%%%%%%%%%%%%%%%%%%%%%%%%%%%j%
14912aJ%%%%%%%%%%%%%%%%%%%%%%%%%%%%%%%%%%%%%%%%%%%%%%%%%%%%%%%%%%%%%%j%J%%%%%%%%
14836@%%%jJ%%%%%%%%%%%%%%%%%%%%%%%%%%%%%%%%%%%%%%%%%%%%%%%%%%%%%%%%%%%%%%%%%%%%%
14761@%%%%%%%%%%%%%%%%%%%%%%%%%%%%%J%%%%%%%%%%J%%%J%%J%%J%J%J%J%%%j%j%jj%%j%j%%j
14686A%%%%%%%%%%j%%%%%%%%%%%%J%j%%%J%%%%%%%%%%%J%%%%%J%%J%J%JJ%JJJJJJJJ%Jj%%jjjk
14610A0jjjj%j%j%j%j%%%j%%%%%%%%%%%%%%%%%%%%%j%J%%%%%%%%%%%%%%%Jj%%J%%J%J%%J%JJ%J
14536H%J%%%jj%jj%jj%j%%%%%%%j%%%%%%%%%j%%%%%%%%%%%%%%%%%%%%%%%%%%%%%%%%%%%%%%%%%
14461@%%%%J%j%%%%%%%%%%%%%%%%%%%%%%%%%%%%%%%%J%%j%%%%%%%%%%%J%%j%%%%%%%%%%%%%%%%
14385@%%%%%%%%%%%%%%j%J%%%%%%%%%%%%%%%%%%%%%%%%%%%%%%%%%%%%%%%%%%%%%%%%%%%%%%%%%
14310@%%%%%%%%%%%%%%%%%%%%%%%%Jj%%%%%%%%%%%%%%%%%%%%%%%%%j%%J%%%%%%%%%%%%%%%%%%%
14235@%%%%%Jj%%%%j%J%%%jJ%%%%%%%%%%%%%%%%%%%%%%%%%%%%j%J%%%%%%%%jJ%%%%%%%%%%%%%%
14159@%%%%%%%%%%%%%%%%j%%%%%%J%%%%%%%%%%%j%%J%%%%%%Jj%%%%jJ%%%%%%%%%%%%%%%%%%%%%
14084@%%%%%%%%%%%%%%%%%%%%%%%%%%%%%%%%%%%%%%%%%%%%%%%%%%%%%%%%%%%%%%%%%%%%%%%%%%
14009@%%%%%%%%%%%%%%%%%%%%%%%%%%%j%J%%%%%%%%%%%%%%%%%%%%%%%%%%%%%%%%%%%%%%%%%%%%
13933@%%%j%%J%jJ%%%J%%j%%%Jj%%%%%%%%%%%%%%%%%%%%%%%%%%%%j%%J%%%%%%%%%jJ%%%%%%%%%
13858@%%%%%%%%%%%%%%%%%%%%%%%%%%%%%%%%%%%%%%%%%%%%%%%%%%%%%%%%%%%%%%%%%%%%%%%%%%
13783@%%%%%%%Jj%%%Jj%%%%%%%%%%%%%%%%%%%%%%%%%%%%%%%%%%%%%%%%%%%%%%%%%%%%%Jj%%%%%
13708@%%%%%%%%%%%%%%%%%%jJ%%%%%%%%%Jj%%%%%%Jj%%%%%%%%%%%%%%%%%%%%%%%%%%%%%%%%%%%
13632@%%%%%%%%%%jJ%%%%%%%%%%%%%%J%%%%j%%%%J%%%j%%%%%%%%%%%%%%%%%%%%%%%%Jj%%%%%%%
13557@%%%Jj%%%%%%%%%%%%%%%%%%%%%%%%%%%%%%%%%%%%%%%%%%Jj%%%%%%%%%%%%%%%%%%%%%%%%%
13482@%%%%%%%%%%%%%%%%%%%%%%%%%%%%%%j%J%%%%%%%%%%jJ%%%%%%%%%%%%%%%%%%%%j%%%J%jJ%
13406@%%%%%%%%%%%%%%%%%%%%%%%%%%%%%%%%%%%%%%%%%%%%%%%%%%J%j%%%%%j%J%%%%%%%j%%%J%
13331@%j%%J%%%%%%%%%%%%%%%%%%%%%%%%%%%%%%%%%%%%%%%%%%%%%%%%%%%%%%%%%%%%%%%%%%%%%
13256@%%%%%%%%%%%%%%%%%%%%%%%%%%%%%%%%%%%%%%%%%%J%%%j%%%%%%%%%%%%%%%%%%%%%Jj%%%%
13180@%%%%%%%%%%%%%%%%%%%%%%%%%%%%%%%%%%%%%%%%%%%%%%%%%%%%%%%%%%%%%%%J%%%%j%%%%%
13105@%%%%%%%%j%%%J%%%j%Jj%%J%%%%%%%%j%%%J%%%%%%%%%%%%%%%%%%%%%%%%%%%%%%%%%%%j%%
13030a%%%J%%%%j%%J%jJ%%%%%%%%Jj%%%%%%%%%%%%%%%%%%%%%%%%%j%J%%%%%%%%%%%%j%J%%%%%%
12954@%%%%%%%j%%%J%%%%%%%%%%%%%%%%%%%jJ%%%%%%%%%%%%%%%%%%%%%%%%%J%j%%%%%%%%%%%%%
12879@%%%%%%%%%%%%%%%%%%%%%%%%J%j%%%%%%%J%%%%j%%%%J%%%%%j%%%%%%%J%%%%j%%%%%%%%%%
12804@%%%J%%%j%%%%%%%%%%%%J%j%%%J%%%%%%%jJ%%%%%%%%%%%%%%%J%%%%%%%%%%%%j%%%%%%%%%
12728A%%%%%%%%%%%%%%%%%%%%%%%%J%%%%%%%%%%%%%%%j%%%%J%%%%J%%%%J%%%%%%%j%j%%%%%%j%
12653A%J%%j%%%%%%%%%%%J%%%%%%%%J%%%%J%%%%%%%%%%j%%%%%%%%%%%%%J%%J%%%%%%%j%%j%j%%
12578B%%%%j%%J%%%%%%%%%%%%%%%%J%%J%%%%J%%J%%%j%j%j%%%%%%j%%%%%J%%%%J%%%%%%j%%j%%
12502B%%j%%%%J%%j%%%%%%%%%%%%%Jj%%J%%J%%J%%%%%%%%j%%j%%%%%%j%J%%%%%%j%J%%%%%%j%%
12427A%%%j%%%%%%%%J%%%%%%%j%J%%%%%%%%%%%%J%%%%%%%%%%%%%j%%%%%%%%%%%%%%%%%%%%%%j%
12352@%%%%%%%%%%%%%%%%%%%%%%%%%%%%%%%%%%%%J%%%%%%J%%j%%%%%%%%%%%%%%%%%J%%%j%%%%%
12276A%%%%%%%%j%%%%%%%%%%%%%%J%%j%%%%%J%%jJ%%%%%%%%%J%%%%%%%%%%%%%%%%%%%%%%%%%%%
12201B%%%%%%%%j%%%%%%%%%%%%%%%%%jJ%%jJ%%%%j%%%%%J%%%%J%jJ%%J%j%%%%%%%Jj%%J%j%%%J
12126C%%%%%%J%j%%%%j%%j%%%%%%%%%%%%%Jj%%%%%%%%%%%%%%J%jJ%j%%J%%%%%J%%J%%%%%j%%j%
12050B%%%%%%%j%%J%%%%%%%%%%%%%%j%%%%%%%%%%%%%%jJ%%%%%%%%%%%j%%%%%JjJ%%%%jJ%%%%%J
11975B%%%%%%j%%%%%%%%%%%%%%%%jJ%%%%jJ%%%%%%%%%%%%%%%%%J%%%%%%%%%%%%%%%%j%%%%%%%%
11900A%%%%%j%J%%%%%%%%%%%%%%%%%%%%%%%%J%%%%%%%%%%%J%%%%J%%%J%%J%J%J%%%%jJ%%%%%J%
11824IJJJJKKKKLLMMMOOOPPMJmqj1j0qponlkkjkj%j%j%j%%%%%%%%%%%%%%%%%%%J%%J%J%%%%j%j
11751D%%j%j%%%%j%%%%%%%%%%%%%%%jJj%%%%%%%%%%%%%J%%%j%%%%J%%%jJ%%%%J%%%%%%%J%%%J%
11676D%%%%j%%%j%%j%%%%%%%j%%%%J%j%%J%%%j%%%%%%%%%%%%%%%%%%%%%%J%j%%%%%%J%%%%%%%%
11601A%%%%J%%j%%%%%%%%%%%j%%%%%%%%J%%%%%%j%%%%%%Jj%%%%%%Jj%%%%%%%%%%%%%%%%%%%%%%
11525@%%%%%%%%%%%%%J%%%%j%%%%%%%%%%%%%%%%%%%%%%%%%%%%%%%%%%%%%%%%J%%%%%jJ%j%%%%%
11450@%%%%%%%%%%%%%%%%Jj%%%%%%%%%%%%%%%%%%%%%%%%%%%%%%%%%%%%%%%j%%J%%%%%%%%%%%%%
11375@%%%%%%%%%%%%%%%%%%%%%%%%%%%%%%%%%%%%%%%Jj%%%%%%%%%%%%J%%%%%j%%%%%%%%%%%j%J
11299@%%%%%%%%%%J%%%%%j%%%%%%%%%%%%%%J%j%%%%%%%%%%%%%%%%%J%j%%%%%%J%%j%%%%%%%%J%
11224A%j%J%%%%%%j%%%%%%%%%%%%%%%%%%%%%%%%%%%%%%%%%%%%%%J%j%%J%%%%%%%%%%%%%%%jJ%%
11149A%%%%%%%%%%j%%J%%%%%%%%%%%%%%J%%%%%%%%%JjJ%%%%j%%%%%%%%%%%%J%%%%%J%%%%J%%j%
11073D%%%j%%%%%%%%%%J%%%%%%%%%%%%%%%%%%J%%J%%J%%%%%%%%%%%j%%%%%j%%%%J%%%%J%%%%%%
10998G%%%%%%j%%%%J%%J%%J%%%%j%%%%j%Jj%%%%J%%%%J%%%%%%%%j%%%%j%%%%j%J%%%J%%%%J%%%
10923I%%j%%%%j%%%%%%%%J%J%%j%%%%%%%j%%j%%%%%%%%J%%%%%%j%%%j%%%%j%%%%J%%J%%%%%%%%
10847F%%%%%%j%%%j%j%%%j%%J%%%%%%%%%%%%%%%%j%%%J%%%%%J%%%j%%%%j%%%%j%%%%J%%jJ%%%j
10772A%%%%%%%%%%j%%%%%j%%%%%%%%J%j%%%%%%%%%%J%%%%%%%%%%%%%%%%j%%%%%%%%%%%%%%%%%j
10697b%J%%%%%%%j%%%%%%%%J%j%%%%%J%%%j%%J%j%%%%%%%%%%Jj%%%Jj%%%%J%%jJ%%%j%%Jj%%J%
10621a%%%%%%j%%J%%%%%%%%%J%%%%%J%j%j%%%%%%%jJ%%%%%%%%%j%%%%%J%%%j%%%%%%J%jJ%%%%%
10546a%%%jJ%%%%%%%j%%%%%%%%%%%Jj%%%J%%%%%%%J%J%%%J%%%J%%%%%%j%%j%j%%%%j%%%%%%%%%
10471aj%%%%%%%J%%%%%%%%%%J%%%%%%%J%%J%J%%%%%%%%j%j%j%%%%%%%%%%%J%%%%%%%J%J%%%J%j
10395C%%%j%j%%j%%j%%%%%%Jj%%%J%%%%J%%%%%J%%%J%%%J%J%JJ%JJJJJJJJ%J%j%jkjkjjjjjj%j
10320B%%%j%%%%%%%%%%%%%J%%%J%%J%J%J%J%J%%J%%J%%J%%%%%%%jj%jj%jj%%%j%%%%J%%J%J%JJ
10245IJJJJ%J%%j%jj%jjj%j%%J%%%%J%%%%%%j%%j%%j%%%%%J%J%%J%%%%%%%%J%J%J%J%%j%jjj%j
10169Hjj%jj%j%J%%%%%J%J%JJJJ%J%J%J%%%J%%JJJJJ%J%%j%jjjjkjkjjjjjjj%jj%jJ%%%%%%%%%
10094A%%j%J%%%J%%JJ%JJJ%KJJJJKJJJ%JJJ%%%jj%jjj%jj%j%jjj%j%%%%J%%J%%%%jj%jkjj%jjj
10019A%%j%%%%%%jJ%%%%%%%%J%%%J%%%J%J%JJJ%JJJJJ%JJJ%J%JJ%Jj%jkkjkjkjjjjj%%%%%%J%%
9943C%%JJ%JJJJKJKKJKKJJjkkkkjkjj%%%%%J%%J%%J%%%j%%j%%j%J%JJJJKJJKJLKKLKKKJKJ%%%j
9867D0j%jkjkj%j%JJKKKLMMNNOPPQRRRJ0RRRQPOML%%jkkj%JLMPQRJ0RRQOLjnqj0j1j2j2j1j0qo
9800A57mlk%JKMNNOPNOOOOOONMNMMMMNNLLJjkllmkkJJMMNPPPQQRQQQPOOMKK%jkkj%%LNPJ1J4J6
9729D11J8K0K2K3K3K3K2K2K2K1K1K1K0K0K2K4K9L4M1N0O1P2Q3R4J04J13J17J15J06Q3M9Jn0r7
9694A760j30j45j46j38j25j08r3p9o6n3m4l4k7k1j4j0nkJMPJ0J2J5J9K2K4K7L0L3L6M0M4M9N4
9658I47N9O5P1P7Q1Q7Q9R2R2R3R2R2R2R2R0Q6P8O4M4J4k4o8j13j47j69j72j63j44j23j01q0o1
9626A132m5l1k2j3qnljJMQJ2K0K6L4M2N0N7O3O6O7O8O4N9N4N0M8M7M9N0M9M7M0L0J4nk6m9p0q5
9585A888r6j01j01r6q9q0p0n9m9l9k8j9rjRJ7K5L3M1N0O0O8P8Q8R7J05J14J21J24J24J20J08R0
9552B523O5L7J1qk0k2j7nRK5M2O0P8R6J18J39J63J84K05K23K35K39K34K18J91J54J09N9Om4r1
9520E216j32j69j97k18k28k26k16j99j77j51j26j01p6n4l4j5%J4K7L5M1M4M0L3K3J1jqj2j6k1
9488C107l0m5o4q6j08j24j34j34j28j16j02q5o9n3l6k0pQK1L3M4N3O2P0P6Q2Q7R5J04J15J28
9457B744J42J57J72J84J92J91J82J61J29Q6M0om2o7p7p8p1o3n5n1n1n5o2p4q9j06j23j40j56
9427C014j66j70j68j58j43j24j03q1o1m1k3nJ1K6M1N6O9Q1R2J01J08J11J09J01Q8O8M3J6j0k9
9397B853m0m2l6k1lJ9M3O7R3J16J39J59J76J89J96J97J90J77J55J27R2N1Rl0o6r7j20j40j55
9367D298j64j67j68j68j70j74j78j82j82j77j67j52j37j20j05r1p9p0o2n5n0m5m2l8l5l3l1k8
9339A228k6k2j8j3p%QJ6K6L4M3N3O2P2P9Q6R2R4R3Q7P4N6L2Mk2m2n6o0n7n1m4l6l3l3l4l5l6l2
9300A582k3j3JJ4K9M1N4O4P3P9Q2Q2P8P2O1M9L6K3J0%oqmOK0L6N1O3O8O5N1L0Jk8n2o8p5p2o6
9260B406n7m9m4m3m2m7n2n7o3o7p0p1o9o8o5o2n9n5n2m9m7m5m3m1l9l7l5l4l1k8k5k0j6j2rmkj
9222G96%jkmpj0j3j6j7k0k1k2k4k3k3k1k0j7j5j1qmjKMPJ0J2J3J6J8K1K4K9L3L8M4N1N8O5P5Q3
9179A099R3J01J05J07R9Q5N8K4j7n7r2j17j30j33j26j15j02q7p3o1n2m2l6k9k5k0j7j3j1pnk%K
9144D04OPRJ0J2J2J1RQNLJklmmllkjklmpj0j2j6j7k0k0k1k1k0k0j9j8j6j5j3j2j1rqponnmllkl
9092A23jk%j%%%JJLKKLLLLLMMLLLKKJJ%J%%%%jjllnooppponnmmlllkjjjj%j%%J%JJJJJJJJJ%jj
9017H9jkklkllkkjkjjjj%j%j%jjj%jjjjjj%jj%%%j%%%%%%J%%J%%JJ%j%%%%jjj%jjj%jj%%j%%%j
8942D1%j%%j%%%j%%%%%%%%%Jj%J%%%%%J%J%JJJJJKJJJJJ%%j%kjjjkjjjj%%j%%%%j%%%%%j%j%j%
8867C6j%%j%J%%%%%%J%%J%J%J%JJ%JJJ%Jj%jjjjjjjj%j%%%J%%J%JJJJJKJKJ%%%%%jjkjjjkjj%j
8791C6jj%j%%%%j%%%%%j%%%j%j%%%%%%%%%%J%J%J%J%JJJJJJJJ%%%j%%%%j%%j%%%j%%%%%%%%%JJ
8716C9JJ%JJJ%j%jjjjjkjjjkj%jjj%j%%j%%%%%%j%J%%%%%%%J%%JJ%%J%%%%%%J%J%J%JJ%JJJJJ%
8641C9%Jjj%jjjj%jj%j%%j%%J%J%J%%%%%j%jjjjjjj%j%%j%%%%j%%%%%%%%%%%j%J%%%%J%%J%J%%
8565B5%%J%%J%%J%J%JJJ%%%%%jj%kjjjjjjjj%j%%%j%%%%jJj%%%%j%%%%%%%%%%J%%%%%%%%%J%J%
8490A9%%%%%J%%%%j%jj%%%j%%%%J%%%%J%%J%%J%%%j%j%j%jj%%%j%%%%%%%%j%%%%%%%%%%%%%%%%
8415A3%%j%%%%%J%%%%J%%%%%%J%%%J%Jj%%%%j%%%j%j%%%%j%%%%%%j%%%%%%%%%%%%%%%%%%%%%%%
8339A1%%%%%%%%%%J%%%%%%j%%%%%%%%j%%%%%%%%%%%%%%j%%%%%%%%%%%J%%%%%%%%%%%J%%%%%%%%
8264A1%%%%%jJ%%%%%J%%%%J%%J%%J%%j%%jj%j%%j%%%%%%%j%%%%%%%%J%%%%J%%%%J%J%J%JJ%JJJ
8189A9%j%%jj%j%%j%%%%j%%%%%%%%%J%%J%%%j%j%%j%j%j%%%%%%%%%j%%%%%J%%%%J%%J%J%%%%J%
8113A4JJ%JJ%%%%%%%%%j%%%%%%%%%%j%jj%j%j%%j%%%jJj%%%%%j%%%%%%%%%%%%%J%%%J%J%%J%J%
8038A4%%%%j%%j%%j%%%%%J%%%%%J%%J%%%%J%j%j%jj%jj%%j%j%%%%%%%%%%%%%%%%%%J%%%%%J%%%
7963IJ%J%J%%J%%%j%jj%j%j%j%%%%%%%%%%J%%%%%%%%j%%%%j%%j%%%%%%%%%%%%%%%%%%%%%%%j%J
7886E%%%%%J%%%%%%%J%j%%%%j%%%%%%%%j%%%%%%%%%%%%%%%%%%%%%%%%%%%%j%%Jj%%%%J%%%%%%j
7810CJ%%%%j%%%%%%%%%%%%%%%%%%%%%%%%%%%%%%%%%%%%%%%%%%%%%%%%%%%%%%%%%%%%%%%%%%%%%
7734C%%%%%%%%%%%%%%%%%j%%%%%%%%%%%%%%%%%%%%%%%%%J%j%%%%%%%%J%%%%%%%%j%%%%%%%%%%%
7657B%%%%%%%%%%%%%%%%%%%%%%%j%%%%J%%%%%%j%%%%%J%%%%%%j%%%%%%%%%%%%%J%j%%%%%%%%j%
7581@J%%%%%%%%%%%%%%%%%%%%%%%%%%%%%%%%%%%jJ%%%%jJ%%%%%%%%j%%%%%%%%%Jj%%%J%%%%%%%
7505A%j%%%%%%%%%%%J%j%%%J%%j%%%%%%%%%%%%%%%%%%%%%%%%%%%%%%%%%%%%%%%%%%%%%%%%%j%J
7428@%%%%%%%%%%%%%%%%%%%%%%%%%%%%%%%%%%%%%%%%%%%%%%%%%%%%j%%%%%%J%%%%%%%%J%J%J%J
7352D%%j%%j%j%%j%%%%j%%%Jj%%%%%%J%%%jJj%J%j%%%%%%%%%%%%%%%J%%jJ%j%%%%%J%%%%%J%J%
7276BJ%%%j%j%j%%%j%%%%%%%%%%%%%%%%%%%%%%%%%%%%%%%%%%%%%%j%%%%%%%%%%J%%%%%%%%%%%%
7199a%%%%%%%%%J%%%J%%%%%%j%%%j%%%%%%%%%%%%%%%%%%%%%%%%%j%%%%%J%%%%%%%%%%%%%%%%%%
7123a%%J%%%%J%%%%%J%JJ%J%J%%J%j%%j%j%j%j%%%%%%%%%%%j%%%%%%j%%%%%%%%%jJj%%%J%%%%%
7047@%%%%J%J%%%%J%J%%%J%%J%%J%J%J%%j%j%%j%j%%j%J%%J%%J%%%%j%jjjj%%j%%%%j%%%%%%%%
6970@%%%%J%%%J%%%%JJ%J%J%%%%%%%j%%%%j%%J%%j%%%%%%%J%%%%J%%%J%%%j%%jjjjj%%%j%%%%%
6894@%%%%%%%%%%J%%%J%J%%J%%%J%%%%%%%j%j%%%%%%%J%J%%%%%j%%%%j%%%%%%j%%%j%%j%%%%%%
6818@j%%%%%%%%%%%%%%%%%%%%J%%%%J%%%%%Jj%%%%%%%%J%%J%%%J%%%%%%j%j%j%%j%j%%%%%%%%%
6741aj%%%%%%%%%%%%%%%%%%%%%%%%%%%%%%%%%%%%%%%%%J%%%%%%J%%%%%%%%%%%%j%%%%%%%j%%%%
6665b%%%%%%%%%%%%%%%%%%%%%%%%%%%%%%%%%%%%J%%%j%J%%j%%%%%%%%%%%%%%%%%%%%%%%%%%%%%
6589bJ%jJ%%%%%%j%%%%%%%%J%%%%%%%%%%%%%%%%%%%%%%%%%%%%%%%%%%%%%%%%%%%%%%%%%%%%%%%
6512a%%%%%%%%J%%%%%%%%%%%%%%%%%%%%%%%%%%%%%%%%%%%%%%%%%%%%%%%%%%%%%%%%%%%%%%%%%%
6436@%%%%%J%%j%%JjJ%j%%%%%%J%%%%%%j%%%J%%%%%jJ%%%%%%%%%%%%%%j%J%%%%%%%%%%%%%%%%%
6360A%%%%%%%%%%%J%%j%%%%%%%J%%%%%j%%%%J%%%j%J%%%%%%%%%%%%%%%%%%%%%%%%J%%%%%%%j%J
6283C%%%%%%%%%%JjJ%%j%%J%%%%%%%%%%%%%%%%%%%%%%%%%%%%%%%%%%%%%%%%%%%J%%%%%j%%J%%%
6207E%%%%%%%%%%J%%%%%%%%%%%%%%%%%%%%%%%%%%%%%%%%J%%%%%%%%%%%%%%%%%%%%%%%%%%%%%%%
6131G%%%%J%%%%%%%%%%%J%%%%J%%%%%%%%%%%%%%J%%%%J%%%%%%%%%%%%Jj%%%%%%%J%%J%%%J%J%%
6054A6JJ%JJ%JJ%JJJKJKKKKLLMLNMNOONOMNLKJ%jlllmlmmmllklkjkjjjj%j%%%%%%J%%JJ%JJJJK
5979F0JKKLKLMMMNOOPQRRRRRQPNMKJklnpqrj0j0j0rrppomnllljkjjk%jj%%j%%%%%%%%%%%J%JJJ
5907F3JJKKKKLKLKLLLLKLKJJ%jkmnnoooonmlmkkkkjjk%j%j%%%j%j%j%%j%%%%%%j%%%%%%%%%%%J
5831B9%%%%%%%%%%%%%J%%%%%%%%%%%%%%%%%%%Jj%%J%%%%J%%J%J%J%%JJ%JJJKJJKKKLLLLMMMLLL
5756H3Jjllmnnmlmkljkjj%j%j%%%%j%%%%%%%%%%%J%%%%J%%J%J%%J%%J%J%J%JJJJKJKKLKLMLMMM
5681H5MLJJjlmnmnmlllkjkj%j%%%%J%%JjJ%%J%%%%%J%%%%J%%J%%%J%J%%J%%J%J%J%J%JJJJJJJJ
5605G3KJJKKKKKLLLMLNNNPPQQRJ0J1J0RQMJlpj1j2j2j2j0rpnnllkkjjj%j%%%%J%%J%%JJJ%JJJJ
5538A12JJKJJJJJJKJKJKKKKKKLLMLMNNOPPRRJ0J0J1J1RPNJloqj0j0rpomlkj%%JJJKKKKKLLLLNM
5470B34NOOOONOLLK%%%%JKLMMNNPOPQQJ0RJ1J1J1J1J1J1J0QQPNONOOPQQJ1J1J3J3J3J3J4J4J4
5414F27J3J2J3J3J5J5J6J7J7J6J6J4J2J0RPOMMLMMNPQJ1J2J5J6J8J9K1K4K8L0L5M0M3M9N2N8O2
5371A420O7P1P7Q1Q7R3R7J05J13J24J38J53J73J95K19K45K77L11L53M00M55N19N91O70P55Q45
5345H634R37J023J097J146J157J112R99Q13N63K74k0k84m90o26o99p24p14o82o38n87n31m76
5322A1284m26l81l45l17k95k76k56k35k07j77j42j06p1m0j1J2L1M8O0P0P5Q2R1J03J25J53J91
5295I040K36K88L44M06M74N47O28P18Q15R19J025J133J238J338J431J512J571J602J588J517
5275B8370J379J174R14O17L08Nk85n64q36j106j366j595j772j874j889j826j700j536j354j172
5254A3892j002q50p15o00n00m14l40k80k30j92j65j45j35j27j24j18j12j01q3n9l1KL5O8R9J26
5228G899J52J78K03K26K49K66K79K86K87K87K89K97L15L41L72M07M39M66M81M84M72M40L80K85
5203A5780J46m2k74n33p89j011j170j250j252j190j084r56q24o98n86m89m08l41k86k40k03j71
5181B129j45j22j04r0p8p0o6o2o3o3o3o4o3o2n9n5n1m7m2l7l3k9k4k0j6j2qmjLOQJ1J2J2RN%n
5141F37j1j4j6j7j7j7j5j5j4j5j5j5j5j5j5j5j6j6j5j5j4j3j2j1j0pponnmmnnoopqqj0rj0rrqp
5094A29poommmmmmllmlkljkj%jJJJKKLMLMKKK%klmnoooonnmlmklkljkkjjkjjjj%jj%j%%j%j%j%
5020B%%%%J%%%j%%%%%%j%%%%%%j%%%j%%j%j%%j%%%%j%%%j%%J%%%%%%%%%%%%%J%%J%J%JJ%%%J%%
4944A%%%%j%j%jj%jj%%j%j%%%%%%%%%%%%%%j%%%%j%%%%%%%%%%%%J%%J%%%%%J%J%J%%%J%%%%jj%
4867ej%j%jj%%%j%%%%%%%j%%%%J%%%%%%j%%%%%%%%%%%%%%%%%%%%J%j%%%%%%%%%%%%j%%%%%%J%%
4791a1%%%%jJ%%j%%%%%%%%J%j%%%%%%%%%%J%%%%%%%%%%%%%%J%%%%%%%%%%%%%%%%%%%J%%%%%%%%
4716i%%%%%%J%%%%%jJ%%%%%%%%J%%%%%J%%%jJ%%%%%%%J%%%J%J%J%JJ%JJ%J%JJJ%KJKJKJLKLLMM
4639C4MNNNONNMMKJjkklmlmllklkkjkkjjj%j%%j%%J%%J%JJ%KJJJKKKLKLLLMMMNOOQQQQRPPOMLJ
4564A63jklmopprrrrrpponnmllklkjkjk%j%%%%J%%J%J%J%J%J%JJJKKKKKKLLKLKKJJJJjjllnnno
4490D5oonmmllkkkjkj%j%j%j%%j%j%%%j%j%%jJ%%%j%%%%%%%J%%%%%%%%%%j%%%%%%%%%%%%%%%%%
4414dJ%j%%%%%%%%j%%%%%%%%%%%%%%%%%%%%%%%%J%%%%j%%%%%%%%%%%%%J%%%%%j%%%%%%%%%J%%%
4338d%%%%%%%%%%%%%%%%%%%%%%%%%%%%%%%%%%%%%%%%%%%%%%%%%%%%%%%%J%%%%%%%%%%%%%%%%%j
4262d%J%%%%%%%%%%%%%%%%%%%%%%%%J%j%%%%%%%J%%%%%jJ%%%%%%%%%%%%%%%%%%%%%%%%%%%%%%%
4185b%%%%%%%J%j%%%%J%%j%%%%%%%%%%%%%%%J%%j%%%J%%%%%%%%%%J%%%%%%j%%%J%j%%%%%J%j%%
4109a%%J%j%%%%%%%%%%%%%%%%%%%%J%%%%j%%%%%%%%%J%%%%%%%%%%%%j%%J%%%%%%%%%%%%%%%%%%
4033@%%%%%%%%%%%%%%%%j%%J%%%%%%%%%%%%%%%%%%%%%%%%%%%%%%%%%%%%%%%%%%%%%%%%%%%J%%%
3956Aj%%J%j%%%%%%%%%J%%%%%j%%%J%jJ%%%%%%%%%%%%%%%%%%%%%%%%%%%%%%%%%jJ%%%j%%J%%%%
3880A%%%%%%%%%%%%%%%%%%%%%%%%%%%%%%%%%%%%%%%%Jj%%%Jj%%%%%%%%%%%%%J%jJ%j%%%%%%%%J
3804B%j%J%%%%%%%%%%%%%%%%%%%%%%jJ%j%%%%J%%%%%%%%%%%%%%%j%J%%%%%%%%%%%%%%%jJ%%%%%
3727B%%%%%%%%%%%%%jJ%%%%%j%%J%%%%%%%%%%%%%%%%%%Jj%%%%%%%J%%%%%%%%%%%%%j%%%J%%%%%
3651C%%jJ%%%%%%J%%j%%Jj%%J%%%%%%J%%%%%J%%%%J%J%%%%%%%J%%%J%J%JJJJKJKKKKLLMMMNOOO
3575F7OOOML%lmoqqqpoonlmkkkjjjjjj%%%%j%%J%%J%JJJJJJ%JJJJJJJKJKJJJ%J%%j%%j%%%%%%%
3499C3%%J%JJJJJJKJJKKLLLLLLKJ%%jjllllllllkkjjjj%jj%j%%%J%J%%%%%j%jjjjjjjkjkjkj%j
3424A6%j%jj%jj%j%%%J%%%J%JJJJJJKKKKKLMMMNNOONNNLJjmnoqqpponmllkkkjjjj%j%%%%%%j%%
3349E%%j%%%%%%%j%%%j%%%%%j%J%%j%%%%%%%%%%%%%%%%%%%%%%%%%%%%%%%%%%%%%%%%%j%%J%%%%
3272A%%jJ%%%j%%J%%%%%%%%jJ%%%%%%%%%%%%%%%%j%J%j%%J%%%%%%%%%%%%%jJ%%%%%%%%%%%%%%%
3196A%%%%%%%%%%%%%%%%%%%jJ%%%%%%%%%%%%%%%%%%%%%%%%%%%%j%%J%%%%%%%j%%%%%%%%%%%%%%
3120@%%%%%%%%%%%%%%%%%%%%%%%%%%%J%%%j%%J%%%j%J%%j%J%%%%j%%%%%%%%%%J%%%%j%%%%%%%%
3043@%J%%%j%%%%%%%%%%%%%%%J%j%%%%%J%%%j%%%%%%%%%%%%%%%%J%%j%%%%%%j%J%%%%Jj%%%%%%
2967@%%%%%%%%%%%%%%%%J%%%%j%%%%%%J%%%%%%%%j%%%%%%%%%%%J%%%j%%%%%%J%%%%%%%%%%%%%%
2891A%%j%%J%%j%%%%%%%%%%%%%%J%%j%%%%%%%%%%%%%%%J%%%%%%%%%j%%%%%%%%%%%%%%%%%J%%%%
2814A%%%%%%%%j%%%%%%%%%%%%%%%%%%%%%%%%%%%%%%%%J%%j%%Jj%%%%%%%%jJ%%%%%%%%%%%%%%%%
2738@%%%%%J%%%%j%%%%%Jj%%%%%%%%%%%%%%%%%%%%%%%%%%%%%%%%%%%%%%%%%%%%%%%%%%%%%%%%%
2662@%%%%%%%%%%%%%%%%%%%%%%%%%%%%%%%%%%%%%%%%%%%%%%%%%%%%%%%%%%%%%%%%%%%%%%%%%%%
2585@%%%%%%%%%%%%%%%%%%%%%%%%%%%%%%%%%%%%%%J%j%%%%%%%%%%%%%%%%%%%%%%%%%%%%%%%%%%
2509@%%%%%%%J%j%%%%%J%%%%%%%%j%%%%%%%%%%%%%%%%%%%%%%j%%J%%%%%%%%%%%%%%j%%J%%%%%%
2433@%%%%%%%%%%%%%%%%%%%%%%%%%%%%%%%%%%%%%%%%%%%%%%%%%%%%%%%%%%%%%%%%%%%%%%%%%%%
2356@%%%%%%%%%%%%%%%%%%%%%%%%%%%%%%%%%%%%%%%%%%%%%j%%J%%%%%%%%%%%%%%%%%%%%%%%%%%
2280@%%%%%%%%%%%%%%%%%%%%%%%%%%%%%%%%%j%%%%J%%%%%%%%%%%%%%%%%%%%%%%%jJ%%%%%%%%%j
2204a%%%%%%%J%%%%%%%%%%%%%%%%%%%%%%%%%%%%%%%%%%%%%%%jJ%%%%%%%%%%%%%%%%%%%%%%%%%%
2127@%%%%%%%%%%%%%%%%%%%%%%%%%%%%%%%%%%%%%%%%%%%%%%%%%%%%%%j%%J%%%%%%%%%%%%%%%%%
2051@%%%%%%J%%j%%%%%%%%%%%%%%%%%%%%%%%%%j%%J%%%%%%%%%%%J%j%%%Jj%%%%%%j%J%%%%%%%%
1975@%%%%%%%J%%j%%%%%%%%%%%%%%%%%%%%%%%%%%%%%%%J%%%%j%%%%%%%%%%%%%%%%%%%%%%%%%%%
1898@%%%%%%%%%%%%%%J%j%%%%%%%%%%%%%%j%%J%%%%%%%%%%%%%%%%%%j%%%J%%%jJ%%%%%%%%%%%%
1822@%%%%%%%%%%%%%%%%%%%%%%%%%%%%%%%%%%%%%%%%%%%%%%%%%%%%%%%%%%%Jj%%%%%j%%%%%%J%
1746@%%%%%%%%%%%%%j%%%J%%%%%%%%%%%%%%%%j%%J%%%%%%%%%%%%%%%%%%%%%%J%j%%%%%%%%%%%%
1669@%%%%%%%%%%%%%%%%%%%%%%%%%%%%%%%%%%%%j%%%J%%%%J%%j%%%%%%%%%%%%%%%%%%%%%%%%%%
1593@%%%%%%Jj%%%%%%%%%%%%%%%%%%%%%%jJ%%%%%%%%%%%%%%%%%%%%%%%%%%%%%%%%%%%%%%%%%%%
1517@%%%%%%%%%%%%%%%%%%%%%%%%%%%%%%j%%J%%%%%Jj%%%%%%%%%%%%%%%%%%%%%%%%%%%%%%%%%%
1440@%%%%%%%%%%%%%%%%%%%%%%%%%%%%%%%%%%%%%%%%%%%%%%%%%%%%%%%%%%%%%%%%%%%%%%%%%J%
1364A%%j%%%%%%%%%%J%%j%%%%%%%%%%%%%%%%%%%%%%%%%%%%%%%%%%%%%%%%%%%%%%%%%%%%%%%%%%
1288@%%%%%%%%%J%%j%%%%%%%%%%%%%%%%%%%%%%%%%%%%%%%%%%%%%%%%%%%%%%%%%J%j%%J%%j%J%j
1211@%%%%%%%%%%%%%%%%%%%%%%%%%%%%%%%%%%%%%%%%%%%%%%J%j%%%%%%%%%%%%%%%%%%%%%%%%%%
1135@%%%%%%%%%%%%%%%%J%%j%%%%%%%%J%%j%%%%%%%%%%%%%%%%%%%%%%%%%%%%%J%%j%%%%%%%J%%
1059Aj%%%%J%j%%%%%%%J%%%j%%%%%%%%%%%%%%%%J%%j%%%%J%%%%j%%%%%%%%%%%%%%%%%%%%%%%%%
982@%%%%J%%%%j%Jj%%%%%%%%%%%%%%%%%%%%%J%j%%%%%%J%j%%%%%%%%%%%J%%%%j%J%%j%%%%%%%%
905@%J%%%%%%%%%%%%%%%%%%%%%%%j%%%%%J%%%%%%J%j%%%%%%%%J%%%%%%J%JJ%JJJJJKKKKLKJ%ll
828A8llkkkj%j%j%j%%%%%%%j%%%%%%%%%%%%J%%%%%%j%%%%%%%%%j%%J%%%j%J%%%%j%%%%%%%Jj%%
751@J%%%%%%%%%%%%%%%%%%%%%%%j%J%%%jJ%%%%%%%%%%%%%%%%%%%%%%%%%%%%%%%%%%%%%j%%%J%%
674A%%%%%J%%%%J%J%J%JJ%JJ%%j%jj%jj%j%%j%%%j%%%%%J%j%%%%%%%%%%%%%j%%J%%%%%%%%%%j%
596@%%%J%%%%%%%%%%%%%%%j%J%%%%j%%%%J%%j%J%%%%%%%j%%%%J%j%%%%%J%%%%%%%%%%j%%%%%%%
519@%%%%%%%%%%%%%%%%J%j%%%%%%%%%%%%%%%%J%j%%%%%%%%%%%%%%%%%%%%J%%%j%%%%%%%%%%%%%
442@%%%%%%%%%%%%%%%%%%%%%%%%%%%%%%%%%%%%%%%%%%%%%%%%%%%%%%%%%%%%%%j%J%%%%%%%%%%%
364@%%jJ%%%%%%%%%%%%%%%%%%%%%%%%j%%%%%%%%%%%%%%J%%j%%%%J%j%%%%%%%%%J%%%%%%%%%%%%
287@%%%%j%%%%%%%%J%j%%%%%%%%%%%%%%%%%%%%%%%%%J%%j%%%%%%%%%%%%%%%%%%%%%%%%%%%%%%%
210a%%%%%%%%%%%%%%j%%J%%%%%j%%%%%%%%%%%%%%%%%%%%%%%%%%%%%%j%%%%%%%%%%%jJ%%%%%%%%
132c%%%%%%%%%%%%%%%%j%%%%%%%%%%%%%%%%%%%%%%%%%%%%%%%%%%%%%%%%%%J%%%%%%%%J%J%J%J%
55AJJKJJKKKKLLMNNNNNK%klljjJKMNOQRJ1J3J6K0K3K7L1L6M1M9N6O4P4Q6J00J16J33J51J68J77
3A469J62J08J1j03j95k29k16j82j48j17r1p0n3m3l6l0k6k3j9j7j4j2j0qponmlkkj%%KJLJjkoop
-41F3pnnlllkkkjjkjjjjj%%jj%j%j%%jj%%%j%%%j%%%j%%%%j%%%j%%%%%%%%j%%%%Jj%%j%%%%jJ%
-117I%%j%%%%%%%j%%%%%%%%%%%%%j%%%%%%%%%%%%%%%j%%%%%%%%%%%%%%j%J%%j%%%%%%%%%%%%%%
-193D%%%%%%%%%%%%%%%%%j%%%%%%%%%%%%%%J%%j%%%%%%%%%%%%%%%%%%%%%%%%%j%%%J%%%%%%j%%
-270B%%%%%%%%%%%%%%%%%%%%%%%%%%%%%%%%%%%%%%%%%%%%%%%%%%%j%%%%%%%J%jJ%%j%%%Jj%%%J
-346B%%%%%j%%%%%%%%J%%%%j%%%Jj%%%%%%%%%%%%%%%%%%%%jJ%jJ%%%%%%%%%%%%%%%%%%%%%%%%%
-422A%%%%%%%%%%%%%%%%%%%%j%%J%%j%%%%%%%%%%%%%%%%J%j%%%%%%J%%%%%%%jJ%j%%%%%Jj%%%%
-499@%%%%J%j%J%%j%%%%%%%%%%%%%%%%%%%%%j%J%%%%%%%%%%%%%Jj%%%%%%%%%%%%%J%j%%%J%%%j
-575@%%%%%%%%%%%%%%%%%%%%%%%%%%%%%%%%%%%%%%%%%%%%J%%%%%%%%%%%%%%%j%%J%%%%j%J%%%%
-651A%J%%J%J%J%J%J%J%j%jj%jjj%%%%%j%%%j%J%%%%%%j%%%%%%%%%J%j%%%%%%%%j%%%%%J%%%%%
-728@%%%%%%%%%%%%%%%%%%%%%%%%%%%%%%%%%%%%%%%%%%Jj%%%%%%%%%%%%%%%%%%j%J%%%%%%%%%%
-804@%%%%%%%%%%%%%%%%%%%%%%%%%%%%%j%%J%%%%%%%%%%%%%%%%%%%%%%%%%%%%%%%%%%%%%%%%%%
-880@%%%%%%%%%%%%%%%%%%%%%%%%%%%%%%%%%%%%%%%%%%%%%%%%%%%%%%%j%%%%J%%%%%jJ%%%%%%%
-957@%%%%%%j%J%%%%%%%j%%%%%%%J%%%%%%%%%%%%%j%%%%%J%%%%%%%%%%%%%%%%j%%J%%%%%%%%%%
-1033@%j%%J%%%%%%%%%%%%%%%%%%%%%%%%%%%%%%%%%j%JjJ%j%%J%j%J%%%%jJ%%%%%%%%%%%%%%%%
-1108@%%%%jJ%%%%%%%%%%%%%%%%%%%%%%%%%%%%%jJ%%%%%%%%%%%%%%%%%%%j%%J%%%%%%%%%%%%%%
-1184@%%%%%%%%%%%%%%%%%%%%%%%%%%%%%%%%%%%%%%%%%%%%%%%%%%%%%%%%%%%%%%%%%%%%%%%%%%
-1259@%%%%%%%%%%j%%J%%%%%%%%%%%%%%%%%%%j%%J%%%%%%%%%%%%jJ%%%J%%j%%%%%%%%%%%%%%%%
-1334@%%%%%%%%%%%%%%%%%%%%%%%%%%%%%%%%%%%%%%%%%%%%%%%%%%%%%%%%%%%%%%%%%%%%%%%%%%
-1410@%j%%J%%%%%%%%%%%%%%%%%%%%%%%%%%%%%%j%J%%%%%%Jj%%%%%%%%%%%%%%%%%%%%%%%%j%%%
-1485aJ%%%%%%%%%%%%%%%%%%%%%%%%%%%%%%%%%%%%%%%J%j%%%%%%%%%%%%%%%%%%%%%%%%%%%%%%%
-1560@%J%%j%%%%%%%%%%%%%%%%%%%%%%%%%%%%%%%%%%%%%%%%%%%%%%%%%%%%%%%%%%%%%%%%%%%%%
-1636@%%%%%%%%%%%%j%%J%%%%%%%%%%%%%%%j%%%J%%%%%%%%%%%%%%%%%%%%%%%%%%%%%%%%%%%%%%
-1711@%%%%%%%%%%%%%%%%%%%%%%%j%%%J%%%%%%%%%%%%%%%%%%%%%%%%%%%%%%%%%%%%%%%%%%%%%%
-1786@%%%%%%%%%%%%%%%%%%%%%%%%%%%%%%%%%%%%%%%%%%%%%%%%%%%%%%%%%%%%%%%%%%%%%%%%%%
-1862@%%%j%J%%%%%%%%%%%%%%%%%%%%%jJ%%%%%%%%%%%%%%%%%%%%%%%%%%%%%%%%j%J%%%%%%%%%%
-1937@%%%%%%%%%%%%%%%%%%%%%%%%%%%%J%j%%%%%%%%j%J%%%%%%%%%%%%%%%%%%%%%%%%%%%%%%%%
-2012@%%%%%%%%%j%%%J%%%%%%%%%%%%%%J%j%%%%%%%%%%%%%%%%%%%%%%%%%%%%%%%%%J%%%j%%%%%
-2088@%%%%%%%%%%%%%%%%%%%%%%%%%%%%%%%%%%%%%%%%%%%%%%%%%%J%%j%%%%%%%%%%%%%%%%%%%%
-2163@%%%%%%%%J%%%j%%%%%%%%%%%%%%%%%%%%%%%%%%%%%%%%%%%%%%%%%%%%%%%%%%%%%%%%%%%%%
-2238@%%%%%%%%%%%%%%%%%%%%%%%%%%%J%j%%%%%%%%%%%%%%%%%%%%%%%%%%%%%%%%%%%%%%%%%%%%
-2314@%%%%%%%%%%%%%%%%J%%%j%%%%%%%%%%%%%%%%%%%%%%%%%%%%%%%%%%%%%%%%%%%%%%%%%%%%%
-2389@%%%%%%%%%%%%%%%%%%%%%%%%%%%%%%%%%%%%%%%%%%%%%%%%%%%%%%%%%%%%%%%%%%%%%%%%%%
-2464@%%%%%%%%%%%%%%%%%%%%%%%%%%%%%%%%%%%%%%%%%%%%%%%j%J%%%%%%%%%%%%%%%%%%%%%%%%
-2540@%%%%%%%%%%%%%%%%%%%%%%%%%%%%%%%%%%%%%%%J%%j%%%%%%%%%%%%%%%%%%%%%%%%%%%%%%%
-2615@%%%%%%%%%%%%%%%%%%%%%%%%%%Jj%%%%%%%%%%%%%%%%j%%%J%%%%%%%%%%%%%J%%j%%%%%%%J
-2690A%%%%%j%%%%%%%%%%%%%%%%%%%%%%%%%%%%%%%%%%%%%%%%%%%%%%%%%%%%%%%%%%%%%%%%J%%j
-2766@%%%%%%%%%%%%%%%%%%%%%%%%%j%%%J%%%%%%%%%%%%%%%%%J%j%%%%%%%%%%%%%%%%%%%%%%%%
-2841@%%%%%%%%%%%%%%%%%%%%%%%%%%%%%%%%%%%%%%%%%%%%%%%%%%%%%%%%%%%%%%%j%%%%J%%%%%
-2916@%%%%%%%%%%%%%%%%%%%%%%%%%%%%%%%%%%%%%%%%%%%%%%%%%%%%%%%%%%%Jj%%%%%%%%%%%%%
-2991@%%%%%%%%%%%%%%%%%%%%%%%%%%%%%%%%%%%%%%%%%%%%%%%%%%%%%%%%%%%%%%%%%%%%%%%%%%
-3067@%%%%%%%%%%%%%%%%%%%%%%%%%%%%%%%%%%%%%%%%%j%Jj%%J%%%%%%%%%%%%%%%%%%%%%%%%%%
-3142@%%%%%%%%%%%%%%%%%%%%%%%%%%%%%%%%%%%%%%%%%%%%%%%%%%%%%%%%%%%%%%%%%%%%%%J%%%
-3217A%j%%%%%%%%%%%%%%jJ%%%%%%%%%%%%%%%%%%%%%%%%%%%%%%%%%%%%%%%%%%%%%%%%%%%%%jJ%
-3293@%%%%%%%%%%%%%%%%%%%%%%%%%%%%%%%%Jj%%%%%%%%%%%%%%Jj%%J%j%%Jj%%%%%%%%%%%%%%%
-3368@%%%%%%%%%%%%%%%%%%%%%%jJ%%%%%%%%%%%%%%%%%%%%%%%j%%J%%%%%%%%%%%%%%j%J%%%%%%
-3443@%%%%%%%%%%%%%%%%%%%%%%%%%%%%%%%%%%%%%%%%%%%%%%%%%%%%%%%%%%%%%%%%%%%%%%%%%%
-3519@%%%%%%%%%%%%%%%%%%%%%%%%%%%%%%%%%%%%%%%%%%%%%%%%%%%%%%%%J%%%j%%%%%%%jJ%%%%
-3594@%%%%%%%J%%%%%%j%%%%%%%%%%%%%%%%%%%%%%%%%%%jJ%%%%%%%%%%%%%%%%%%%%%%%%%%%%%%
-3669@%%%%%%%%%%%%%%%%j%%J%%%%%%%%%%%%%%%%%%%%%%%%%%%%%%%%%%%%%%%%%%%%%%%%%%%%%%
-3745@%%%%%%%%%%%%%%%%%%%%%%%%%%%%%%%%%%%%%%%%%%%%%%%%%%%%%%%%%%%%%%%%%%%j%J%%%%
-3820@%%%%%%%%%%%%%%%%%%%J%j%%%%%%%%%%%%%%%%%%%%%%%%%%%%%%%%%%%%%%%%%%%%%%%%%%%%
-3895@%%%%%%%%%%%%%%%%%%%%%%Jj%%%%%%%%%%%%%%%%%%%%%%%%%%%%%%%%%%%%%%%%%%%%%%%%%%
-3971@%%%%%%%%%%%%%%%%%%%%%%%%%%%%%%%%%%%%%%%%%%%%%J%%j%%%%%%%%%%%%J%%%%%%jJ%j%%
-4046@%%%%%%%%j%%%%%%J%%jJ%%%%%%%%%%%%%%%%%%%%%%%%%%%%%%%%%%%%%%%%%%%%%%%%%%%%%%
-4121@%%%%%%%%%%%%%%%%%%%%%%j%J%%%%%%%%%%%%%%%%%%%%%%%%%%%%%%%%%%%%%%j%J%%%%%%%%
-4197@%%%%%%%%%%%%%%%%%%%%%%%%J%%%j%%%%%%%%%%%%%%%%%%%%%%%%J%%%j%Jj%%%%%%%Jj%%%J
-4272A%%%%%%%%%%j%%j%J%%%%%%%%%%%%%%%j%J%%%%%%%%%J%j%%J%j%%%%%%%%%%%%%%%%%%%%%%%
-4347@%%%%%%%%%%%%%%%%%J%%%j%%%%%%%%%%%%%%%%%%%%%%%%%%%%%%%%%%%j%J%%%%%%%%%Jj%%%
-4423@%%%%%%%%%%%%%%%%%%%%%%%%%%%%%%%%%%%%%%%%%%%%%%%%%%%%%%%%%%%%%%%%%%%%%%%%%%
-4498@%%%%%%%%%%%%%%%%%%%%%%%%%%%%%%%%%%%%%%%%%%%%%%%%%%%%%%%%%%%jJ%%%%%%j%%%J%%
-4573@%%%%%%%%%%%%%%%%%%%j%%%J%%%%%%%%%%%%%%%%%%%%%%%%%%%%%%%%%%%%%%%%%j%%J%%%%%
-4649@%%%%%%%%%%%%%%%%j%J%%%%%%%%%%%%%%%%%%%%%%%%%%%%%%%%%%%%%%%%%%%%%%%%%%%%%%%
-4724@%%%%%%%J%j%Jj%%%%jJj%J%%%%%%%%Jj%%%%%%%%%%%%%%%%Jj%%%%%%%%%%%%%%%%%%%%%%%%
-4799@%%%%%%%%%%j%J%%%%%%%%%%%%%%%%J%%%j%%J%%j%%%%%%%%%%%%%%%%%%%%%%%%%%%%%%%%%%
-4875@%J%%j%%%%%%%%%%%%%%%%%%%%%%%%%%%%%%%%%%%%%%%%%%%%%%%%%%%%%%%%%%%%%%%%%%%%%
-4950@%%%%%%%%%%%%%%%J%j%%%%%%%%%%%%%%%%%%%%%%%%%%%jJ%%%%%%%%%%%%%%%%%%%%%%%%%%j
-5025a%%J%j%%%%J%%%%%%%%%%%%%%%%%%%%%%%%%%%%%%%%%%%%%%%%%%%%%%%%%%%%%%%%%%%%j%J%
-5100@%%%j%%J%%%%jJ%%%%%%%%%%%%%%%%%%%%%%%%%%%%%%%%%%%%%%%%%%%%%%%%%%jJ%%%%%%%%%
-5176@%%%%%%%%%%%%%jJ%%%%%%%%%%%%%%%%%%%%%%%%%%%%%%%%%%%%%%%%%%%%%%%%%%%%%%%%%%%
-5251@%%%%%%%%%%%%%%%%%%%%%%%%%%%%%%%%%%%%%%%jJ%%%%%%%%%%%%%%%%%%%%%%%%%%%%%%%%%
-5326@%%%%%%%%%%%%%%%%%%%%%%%%%%%%%%%%%%%%%%%%%%%%%%%%%%Jj%%%%%%%%%%%%%%%%%%%%%%
-5402@%%%%%%%%%%%J%j%%%%Jj%%%%%%%%%%%%%%%%%%%j%%%Jj%J%%%%%%%%%%%%%%%%%%%%%%%%%%%
-5477@%%%%%%%%%%%%%%%%%%%%%%%%%%%%%%%%%%%%%%%%%%%%%%%%%%%%%%%%%%%%%%%%%%%%%%%%%%
-5552@%%%%%%%%%%%%%%%%%%%%%%%%%%%%%%%%%%%%%%%%%J%j%%%%%%%%%%%%%%%%%%%%%%%%%%%%%%
-5628@%%%%%%%%%%%%%%j%%%J%%%%%%%%%%%%%%%%%%%%%%%%%%%%%%%%%%%%%%%%%%%%%%%%%%J%j%%
-5703@%%%%%%%%%%%%%%%%%J%j%%%%%%%%%%%%%%%%%%%%%%%%%%%%%%%%%%%%%jJ%%%%%%%%%%%%%%%
-5778@%%%%%%%J%%j%%%%%%%%%%%%%%%J%%j%%%%%%%%%%%%%%%%%%%j%%%J%%%%%%%%%%%%%%%%%Jj%
-5854@%%%%%%%%%%%%%%%%%%%%%%%%%%%%%%%%%%%%%%%%%%%%%%%%%%%%%%%%%%%%%%%%%%%%%%%%%%
-5929@%%%%%%%%%%%%%%%%%%%%%%%%%%%%%%%%%%%%%%%%%%%%%%%%%%%%%%%%%%%%%%Jj%%%%%%%j%J
-6004@%%%%%%%%%%%%%%%%%%%%%%%%%%%%%%%%%%%%%%%%%%%%%%%%%%%%%%%%%%%%%%%%%%%%J%%j%%
-6080@%%%%%%%%%%%%%%%%%%%%%%%%%%%%%%%%%%%%%%%%%%%%%%%%%%%%%%%%%%%%%%%%%%%%%%%%%%
-6155@%%%%%%%%%%%%%%%%J%%j%%%%%%%%%%%%%%%%%%%%%%%%%%%%%Jj%%%%%%%%%%%%%%%%%%%%%%%
-6230@%%%%J%j%%%%%%%%%%%%%%%%%%%%%%%%%%%%%%%%%%%%%%%%%%%%%%%%%%%%%%%%%%%%%%%J%j%
-6306@%%%%%%%%%%%%%%%%%%%%%%%%%%%%%%%%%%%%%%%%%%%%%%%%%%%%%%%%%%%%%%%%%%jJ%%%%%%
-6381@%%%%%%%%%%%%%%%%%%%%%%%%%%%%%%%%%%%%%%%%%%%%%%%%%%%%%%%%%%%%%J%j%%J%j%%%%%
-6456@J%j%%%%%%%%%%%%%%Jj%%%%J%j%%%%%%%%%%%%%%%%%%%%%%%%Jj%%%%%%%%%%%%%%%%%%%%%%
-6532@%%%%%%%%%%jJ%%%%%%%%%%%%%%j%%J%%%%%%%%%%%%%%%%%%%%%%%%%%%%%%%%%%j%%J%%j%J%
-6607@%%%%%%%j%%J%j%%J%%%%%%j%%J%j%%%%J%%%%%%%%j%%%J%%%%%%%%%%%%%%%%%%%%%%%%%%%%
-6682@%%%%%%%%%%%%%
-6695@ $$ checkpoint
##END=
##TITLE=Peak list
##JCAMP-DX=5.01
##ORIGIN=UNKNOWN
##OWNER=UNKNOWN
##DATA TYPE=NMR PEAK TABLE
##DATA CLASS=PEAK TABLE
##BLOCK_ID=3
##CROSS REFERENCE=NMR SPECTRUM:BLOCK_ID=2
##DATE=22/03/03
##TIME=15:06:30
##TEMPERATURE=25
##LONG DATE=2022/03/03 15:06:30 
##.OBSERVE FREQUENCY=500
##.OBSERVE NUCLEUS=1H
##.SOLVENT NAME=H2O
##NPOINTS=70
##XUNITS=PPM
##YUNITS=ARBITRARY UNITS
##PEAK TABLE=(XY..XY)
(0.936, 6252729824.250001)
(0.948, 12720435000.000002)
(0.96, 6766317387.375001)
(0.936, 6252729824.250001)
(0.948, 12720435000.000002)
(0.96, 6766317387.375001)
(0.936, 6252729824.250001)
(0.948, 12720435000.000002)
(0.96, 6766317387.375001)
(0.936, 6252729824.250001)
(0.948, 12720435000.000002)
(0.96, 6766317387.375001)
(0.936, 6252729824.250001)
(0.948, 12720435000.000002)
(0.96, 6766317387.375001)
(0.936, 6252729824.250001)
(0.948, 12720435000.000002)
(0.96, 6766317387.375001)
(1.631, 109395741.00000001)
(1.644, 393697463.25000006)
(1.651, 1329285457.5000002)
(1.668, 2250880973.2500005)
(1.676, 1763052291.0000002)
(1.687, 3949695067.5000005)
(1.691, 2521826238.7500005)
(1.7, 3604335257.2500005)
(1.709, 2748249981.7500005)
(1.714, 4342120487.250001)
(1.726, 1819022205.0000002)
(1.735, 2040357774.0000002)
(1.745, 1480658634.0000002)
(1.758, 272217309.0)
(1.766, 234056004.00000006)
(1.631, 109395741.00000001)
(1.644, 393697463.25000006)
(1.651, 1329285457.5000002)
(1.668, 2250880973.2500005)
(1.676, 1763052291.0000002)
(1.687, 3949695067.5000005)
(1.691, 2521826238.7500005)
(1.7, 3604335257.2500005)
(1.709, 2748249981.7500005)
(1.714, 4342120487.250001)
(1.726, 1819022205.0000002)
(1.735, 2040357774.0000002)
(1.745, 1480658634.0000002)
(1.758, 272217309.0)
(1.766, 234056004.00000006)
(1.631, 109395741.00000001)
(1.644, 393697463.25000006)
(1.651, 1329285457.5000002)
(1.668, 2250880973.2500005)
(1.676, 1763052291.0000002)
(1.687, 3949695067.5000005)
(1.691, 2521826238.7500005)
(1.7, 3604335257.2500005)
(1.709, 2748249981.7500005)
(1.714, 4342120487.250001)
(1.726, 1819022205.0000002)
(1.735, 2040357774.0000002)
(1.745, 1480658634.0000002)
(1.758, 272217309.0)
(1.766, 234056004.00000006)
(3.701, 581959901.2500001)
(3.712, 5689850575.500001)
(3.717, 3237986729.25)
(3.722, 10753855749.000002)
(3.73, 4075627374.000001)
(3.734, 3451690037.250001)
(3.739, 7172417274.750002)
##END=
##TITLE=Assignments
##JCAMP-DX=5.01
##ORIGIN=UNKNOWN
##OWNER=UNKNOWN
##DATA TYPE=NMR PEAK ASSIGNMENTS
##DATA CLASS=PEAK ASSIGNMENTS
##BLOCK_ID=4
##CROSS REFERENCE=STRUCTURE:BLOCK_ID=1
##DATE=22/03/03
##TIME=15:06:30
##SAMPLE DESCRIPTION=L-leucine
##TEMPERATURE=25
##LONG DATE=2022/03/03 15:06:30 
##SOURCE REFERENCE=HMDB0000687
##.OBSERVE FREQUENCY=500
##.OBSERVE NUCLEUS=1H
##.SOLVENT NAME=H2O
##NPOINTS=70
##XUNITS=PPM
##PEAK ASSIGNMENTS=(XMA)
(0.948, <t>, <10>)
(0.948, <t>, <10>)
(0.948, <t>, <10>)
(0.948, <t>, <11>)
(0.948, <t>, <11>)
(0.948, <t>, <11>)
(0.948, <t>, <12>)
(0.948, <t>, <12>)
(0.948, <t>, <12>)
(0.948, <t>, <14>)
(0.948, <t>, <14>)
(0.948, <t>, <14>)
(0.948, <t>, <15>)
(0.948, <t>, <15>)
(0.948, <t>, <15>)
(0.948, <t>, <16>)
(0.948, <t>, <16>)
(0.948, <t>, <16>)
(1.7, <m>, <13>)
(1.7, <m>, <13>)
(1.7, <m>, <13>)
(1.7, <m>, <13>)
(1.7, <m>, <13>)
(1.7, <m>, <13>)
(1.7, <m>, <13>)
(1.7, <m>, <13>)
(1.7, <m>, <13>)
(1.7, <m>, <13>)
(1.7, <m>, <13>)
(1.7, <m>, <13>)
(1.7, <m>, <13>)
(1.7, <m>, <13>)
(1.7, <m>, <13>)
(1.7, <m>, <17>)
(1.7, <m>, <17>)
(1.7, <m>, <17>)
(1.7, <m>, <17>)
(1.7, <m>, <17>)
(1.7, <m>, <17>)
(1.7, <m>, <17>)
(1.7, <m>, <17>)
(1.7, <m>, <17>)
(1.7, <m>, <17>)
(1.7, <m>, <17>)
(1.7, <m>, <17>)
(1.7, <m>, <17>)
(1.7, <m>, <17>)
(1.7, <m>, <17>)
(1.7, <m>, <18>)
(1.7, <m>, <18>)
(1.7, <m>, <18>)
(1.7, <m>, <18>)
(1.7, <m>, <18>)
(1.7, <m>, <18>)
(1.7, <m>, <18>)
(1.7, <m>, <18>)
(1.7, <m>, <18>)
(1.7, <m>, <18>)
(1.7, <m>, <18>)
(1.7, <m>, <18>)
(1.7, <m>, <18>)
(1.7, <m>, <18>)
(1.7, <m>, <18>)
(3.722, <m>, <19>)
(3.722, <m>, <19>)
(3.722, <m>, <19>)
(3.722, <m>, <19>)
(3.722, <m>, <19>)
(3.722, <m>, <19>)
(3.722, <m>, <19>)
##END=
##END=
