##TITLE=HMDB0000220, Experimental spectrum with assignments
##JCAMP-DX=4.24
##ORIGIN=UNKNOWN
##OWNER=UNKNOWN
##DATA TYPE=LINK
##DATE=22/03/03
##TIME=15:04:48
##LONG DATE=2022/03/03 15:04:48 
##TITLE=Palmitic acid
##JCAMP-CS=3.7
##ORIGIN=UNKNOWN
##OWNER=UNKNOWN
##DATE=22/03/03
##TIME=15:04:48
##BLOCK_ID=1
##CROSS REFERENCE=NMR PEAK ASSIGNMENTS:BLOCK_ID=4
##LONG DATE=2022/03/03 15:04:48 
##MOLFORM=C16 H32 O2
##ATOMLIST=
1 C 0
2 C 0
3 C 0
4 C 0
5 C 0
6 C 0
7 C 0
8 C 0
9 C 0
10 C 0
11 C 0
12 C 0
13 C 0
14 C 0
15 C 0
16 C 0
17 O 0
18 O 0
19 H 0
20 H 0
21 H 0
22 H 0
23 H 0
24 H 0
25 H 0
26 H 0
27 H 0
28 H 0
29 H 0
30 H 0
31 H 0
32 H 0
33 H 0
34 H 0
35 H 0
36 H 0
37 H 0
38 H 0
39 H 0
40 H 0
41 H 0
42 H 0
43 H 0
44 H 0
45 H 0
46 H 0
47 H 0
48 H 0
49 H 0
50 H 0
##BONDLIST=
1 2 S
2 3 S
3 4 S
4 5 S
5 6 S
6 7 S
7 8 S
8 9 S
9 10 S
10 11 S
11 12 S
12 13 S
13 14 S
14 15 S
15 16 S
16 17 D
16 18 S
1 19 S
1 20 S
1 21 S
2 22 S
2 23 S
3 24 S
3 25 S
4 26 S
4 27 S
5 28 S
5 29 S
6 30 S
6 31 S
7 32 S
7 33 S
8 34 S
8 35 S
9 36 S
9 37 S
10 38 S
10 39 S
11 40 S
11 41 S
12 42 S
12 43 S
13 44 S
13 45 S
14 46 S
14 47 S
15 48 S
15 49 S
18 50 S
##$MOLFILE=
     RDKit          3D

 50 49  0  0  0  0  0  0  0  0999 V2000
    7.4565    0.8950    1.8609 C   0  0  0  0  0  0  0  0  0  0  0  0
    5.9582    0.7182    1.9193 C   0  0  0  0  0  0  0  0  0  0  0  0
    5.3851    0.5984    0.5127 C   0  0  0  0  0  0  0  0  0  0  0  0
    3.8743    0.4219    0.6047 C   0  0  0  0  0  0  0  0  0  0  0  0
    3.3592    0.3094   -0.7835 C   0  0  0  0  0  0  0  0  0  0  0  0
    1.8283    0.1454   -0.8587 C   0  0  0  0  0  0  0  0  0  0  0  0
    1.4682   -1.0902   -0.1360 C   0  0  0  0  0  0  0  0  0  0  0  0
    0.0441   -1.5163   -0.1030 C   0  0  0  0  0  0  0  0  0  0  0  0
   -0.9668   -0.6861    0.5348 C   0  0  0  0  0  0  0  0  0  0  0  0
   -1.2744    0.6717    0.0925 C   0  0  0  0  0  0  0  0  0  0  0  0
   -1.6947    0.8596   -1.3148 C   0  0  0  0  0  0  0  0  0  0  0  0
   -2.9103    0.1442   -1.7725 C   0  0  0  0  0  0  0  0  0  0  0  0
   -4.1135    0.5564   -0.9869 C   0  0  0  0  0  0  0  0  0  0  0  0
   -5.3696   -0.1294   -1.4197 C   0  0  0  0  0  0  0  0  0  0  0  0
   -6.5297    0.3290   -0.5902 C   0  0  0  0  0  0  0  0  0  0  0  0
   -6.4400    0.0249    0.8446 C   0  0  0  0  0  0  0  0  0  0  0  0
   -5.4979   -0.6499    1.2941 O   0  0  0  0  0  0  0  0  0  0  0  0
   -7.4108    0.4916    1.7094 O   0  0  0  0  0  0  0  0  0  0  0  0
    7.8529    0.4023    0.9490 H   0  0  0  0  0  0  0  0  0  0  0  0
    7.7501    1.9593    1.7936 H   0  0  0  0  0  0  0  0  0  0  0  0
    7.9621    0.4870    2.7582 H   0  0  0  0  0  0  0  0  0  0  0  0
    5.5266    1.6132    2.3975 H   0  0  0  0  0  0  0  0  0  0  0  0
    5.6791   -0.1889    2.5066 H   0  0  0  0  0  0  0  0  0  0  0  0
    5.8362   -0.2648   -0.0022 H   0  0  0  0  0  0  0  0  0  0  0  0
    5.5687    1.5346   -0.0461 H   0  0  0  0  0  0  0  0  0  0  0  0
    3.4532    1.2936    1.1353 H   0  0  0  0  0  0  0  0  0  0  0  0
    3.7417   -0.5124    1.1939 H   0  0  0  0  0  0  0  0  0  0  0  0
    3.8606   -0.5137   -1.3166 H   0  0  0  0  0  0  0  0  0  0  0  0
    3.6439    1.2447   -1.3298 H   0  0  0  0  0  0  0  0  0  0  0  0
    1.5925    0.0795   -1.9628 H   0  0  0  0  0  0  0  0  0  0  0  0
    1.4500    1.0980   -0.4536 H   0  0  0  0  0  0  0  0  0  0  0  0
    2.1142   -1.9414   -0.5121 H   0  0  0  0  0  0  0  0  0  0  0  0
    1.8352   -0.9625    0.9404 H   0  0  0  0  0  0  0  0  0  0  0  0
    0.0677   -2.5442    0.4133 H   0  0  0  0  0  0  0  0  0  0  0  0
   -0.2062   -1.7999   -1.1691 H   0  0  0  0  0  0  0  0  0  0  0  0
   -0.6530   -0.5824    1.6356 H   0  0  0  0  0  0  0  0  0  0  0  0
   -1.9105   -1.3258    0.6744 H   0  0  0  0  0  0  0  0  0  0  0  0
   -2.2028    0.9934    0.7096 H   0  0  0  0  0  0  0  0  0  0  0  0
   -0.5492    1.4316    0.3881 H   0  0  0  0  0  0  0  0  0  0  0  0
   -0.8331    0.7556   -2.0424 H   0  0  0  0  0  0  0  0  0  0  0  0
   -1.9363    1.9653   -1.4176 H   0  0  0  0  0  0  0  0  0  0  0  0
   -2.7919   -0.9541   -1.8516 H   0  0  0  0  0  0  0  0  0  0  0  0
   -3.0973    0.4843   -2.8346 H   0  0  0  0  0  0  0  0  0  0  0  0
   -4.0126    0.5046    0.0887 H   0  0  0  0  0  0  0  0  0  0  0  0
   -4.2710    1.6534   -1.2392 H   0  0  0  0  0  0  0  0  0  0  0  0
   -5.6184    0.0505   -2.4855 H   0  0  0  0  0  0  0  0  0  0  0  0
   -5.2825   -1.2427   -1.2988 H   0  0  0  0  0  0  0  0  0  0  0  0
   -6.6571    1.4526   -0.6490 H   0  0  0  0  0  0  0  0  0  0  0  0
   -7.5011   -0.0486   -1.0095 H   0  0  0  0  0  0  0  0  0  0  0  0
   -7.5781    0.1094    2.6283 H   0  0  0  0  0  0  0  0  0  0  0  0
  1  2  1  0
  2  3  1  0
  3  4  1  0
  4  5  1  0
  5  6  1  0
  6  7  1  0
  7  8  1  0
  8  9  1  0
  9 10  1  0
 10 11  1  0
 11 12  1  0
 12 13  1  0
 13 14  1  0
 14 15  1  0
 15 16  1  0
 16 17  2  0
 16 18  1  0
  1 19  1  0
  1 20  1  0
  1 21  1  0
  2 22  1  0
  2 23  1  0
  3 24  1  0
  3 25  1  0
  4 26  1  0
  4 27  1  0
  5 28  1  0
  5 29  1  0
  6 30  1  0
  6 31  1  0
  7 32  1  0
  7 33  1  0
  8 34  1  0
  8 35  1  0
  9 36  1  0
  9 37  1  0
 10 38  1  0
 10 39  1  0
 11 40  1  0
 11 41  1  0
 12 42  1  0
 12 43  1  0
 13 44  1  0
 13 45  1  0
 14 46  1  0
 14 47  1  0
 15 48  1  0
 15 49  1  0
 18 50  1  0
M  END

##END=
##TITLE=Spectrum
##JCAMP-DX=5.01
##ORIGIN=UNKNOWN
##OWNER=UNKNOWN
##DATA TYPE=NMR SPECTRUM
##BLOCK_ID=2
##CROSS REFERENCE=NMR PEAK TABLE:BLOCK_ID=3
##DATE=22/03/03
##TIME=15:04:48
##TEMPERATURE=25
##LONG DATE=2022/03/03 15:04:48 
##.OBSERVE FREQUENCY=500
##.OBSERVE NUCLEUS=1H
##.SOLVENT NAME=CDCl3
##.SHIFT REFERENCE=INTERNAL,CHCl3,60023.52,0
##XUNITS=PPM
##FIRSTX=10.98899
##LASTX=-1.009031
##MINX=-1.009031
##MAXX=10.98899
##XFACTOR=0.00018999999999991246
##NPOINTS=65536
##YUNITS=ARBITRARY UNITS
##FIRSTY=869.161
##LASTY=335.3297999999999
##MINY=-13650.31
##MAXY=10011920.0
##YFACTOR=305.5488753929258
##XYDATA=(X++(Y..Y)), XYDATA $$ DIF
57837Cjj%%j%%%%%%%J%J%%%%J%%%%j%j%%%%J%J%j%j%%%%%J%%%%%j%j%%%%j%%j%%%%%%%%%J%J%J
57765A%%%%%%%%%JJ%Jj%%j%j%j%jJ%%%J%%%%%j%j%%%%%%%%%j%%%%JJ%J%J%%%j%j%j%%%%%%%j%J
57694a%%J%J%J%%%%%%%%%jj%j%%%J%%J%%%%j%%%%j%%j%%%%%%%%J%%J%%%%%Jj%%j%j%%%%j%%J%J
57623a%J%%J%%J%j%jj%J%%JJ%%Jj%j%jj%%%JJJ%%%j%j%%%%J%J%%J%%%%%jj%jj%j%J%%%%%%%%J%
57552@%J%%%%J%j%%%j%J%%%%j%%%%%J%J%%%j%%j%j%j%%%%%%%%%%%J%%%%J%%%%%%%j%%%j%%%%%J
57480a%%JJ%JJ%%j%jjj%j%J%JJJ%%%%jj%j%j%J%%J%J%J%J%%%j%%%%%%jj%j%J%%%%%%%j%%j%%%J
57409a%J%%%J%%%%j%%%%%J%%%%%Jj%%j%j%%%J%J%J%%%%j%jj%%%%%%%%j%J%%%%j%%J%%%%%%%%%J
57338@J%KJJ%%%jj%jjj%%j%%J%J%%Jj%j%%%J%%%%j%%j%%%%%%%j%%%J%%%j%%%%%JJJJ%%jj%j%J%
57266@J%j%%j%%J%%J%J%%%%%%j%j%j%j%%%J%%%%j%j%%%J%JJ%Jj%%jj%%j%%%%%%%%%%%%%%JJ%J%
57195@J%%%%%J%%%%j%%j%%J%%J%%jjj%j%%%J%%J%j%%%%%%%j%J%JJ%%%%j%%%%J%%%%%j%j%%%%%%
57124aJ%%%%%%J%%%%%%%%%%%%j%%j%%%JJJ%%J%%%%%%%%%%j%%%%j%%j%%%%%j%%J%%J%%%j%%%%j%
57052a%%%%%J%%J%%%j%%%%j%%j%%J%%%%%%%%%J%%%%%%j%j%%j%%%%%%JJJ%J%%%%j%j%j%%%%JJJJ
56981BJ%%jj%j%J%%%%j%%jJ%%J%%%%j%%%j%j%%%%JJ%%Jj%%%%%%J%%%%%j%%j%%J%J%%%%j%%J%%J
56910Bj%j%j%%%%jj%j%JJJ%J%%%%jJ%J%%%j%%j%%%%%%%J%%J%J%%%%j%j%%%%%%%%%j%j%%J%J%%%
56839@J%%%%J%%%%j%%j%%j%%%%%J%%%J%j%%%%%%%%j%j%%JJJJ%J%%j%%%j%%%%j%j%%J%%j%%j%%%
56767b%%%%%%J%J%%%J%%%%%j%j%%%J%%%%%j%%j%%%j%%%%%j%%%J%%J%JJ%J%J%%jj%%jj%j%%%%J%
56696bJJ%J%J%%%%j%%j%%%j%%J%%j%%%%%J%%%%j%j%%%%J%%%%j%J%J%J%j%j%%%J%%%%%%%J%%J%%
56625BJ%j%%%j%%%jj%j%%J%J%J%%j%%%%%J%%%%%%%j%%%J%%%jj%j%J%J%%%%J%%J%j%j%%%%%J%j%
56553@%j%%%%%j%j%%%J%%%%%%%JJJJ%%%%jjj%%JJ%%%j%j%%%%%%%%j%j%%J%J%J%J%%j%j%%%%%Jj
56482a%%%%%%%J%%%%%%%%%%%%J%j%%j%%%%%%%J%%%%%%%%%%%%%%%%%%%J%%%%%%%%%%J%%%%%j%%j
56411@%J%J%%%j%jj%%%%%J%%%%%%j%%%%%J%%%j%%J%J%%%%j%j%%%%J%%J%%%j%%%j%j%%%%%%J%%J
56339@%J%J%%%%%%%%%%%%%%%%%%%%j%%jJ%%%%j%%%%%%j%j%%J%J%%%%%%%%%%%J%%%jj%jj%%%%%J
56268bJ%%%%%%J%J%%%%%%%%jjj%j%J%JJ%%%%%%%%%J%%J%j%%%%%%J%%j%%J%%Jj%%jj%j%%%%%J%%
56197@%%%%%%%%%%%j%%%%%%J%J%%%%j%%%%J%%J%%%j%%j%J%J%J%j%j%%%%%%%j%%j%%j%%%%%%%%%
56125b%%%%J%J%JJ%%%%%%%%%jj%j%%%JJ%JJ%%%j%%j%%j%%%%J%j%j%j%%%%J%J%J%J%%j%%%%j%jj
56054bj%jJ%JJ%%%jj%%%%JJJJ%J%%%%jj%jj%%%J%J%J%%%%%%%J%%%%%%%%%j%%%%%j%%j%%%%%%%%
55983a%%J%%%%j%j%J%JJJ%%%%jjj%j%%JJ%%J%%%%%%%%%j%%%%%%J%%%J%%%%%%%%J%%%j%j%%%%%j
55912@%%%%%%%%%j%%%%%J%%%%j%%%%%J%%%%j%%%%j%%%%%%%%%%%%%%%J%%J%%%j%%%%%%J%%%%%%%
55840@%J%%J%%%%j%%jJ%J%J%%Jj%%%jjj%jj%%%J%J%%J%%j%%%%%jj%%%%%%%%%J%%%%%%%%%j%%%J
55769a%J%J%%%%%%%j%%%%%%%jj%%%J%%J%%%j%j%%J%J%%Jj%%%jJ%%J%j%j%%j%%%j%j%%JJJJ%%%%
55698@%%%Jj%%%%%%%J%J%jj%jj%%%%%J%%J%J%%%%%j%jj%%%J%J%%J%%%%%%%%J%j%j%%%%JJJJ%%j
55626Cjjj%%%%%%%j%j%%%%%J%J%%%%%jj%j%%%J%J%%%%%%J%J%J%%%%%j%j%%%%%%%%%j%j%J%%%J%
55555@%J%%J%%%%%%j%j%%%%J%J%%%%j%j%%%J%J%%%%%%j%j%j%%%J%%%%%j%%%%%%%%J%%%%%%%%%%
55484@%j%J%%J%%%j%%j%%%%%%%j%%%j%jJ%JJJ%%%%j%j%j%%%%%J%JJJ%J%%J%%%%j%j%j%%%%%%%%
55412@%%%%j%J%%J%%J%J%j%j%j%%%%j%jj%%JJ%J%%%jjj%%%%%%Jj%%%J%J%%%%%j%%J%JJJ%j%jj%
55341aj%%J%J%J%j%j%%%%%%J%%J%J%%%j%jj%%j%%%%J%%%%%%j%j%%J%J%%%%jJ%JJJJJ%j%j%%%j%
55270Aj%%%j%%%%%%JJ%%%%%j%j%%%%j%%%%%Jj%%j%%%%%%%%%%%%%%J%%%%%%%%%%J%%%j%%j%%j%J
55199cJKJJ%jjj%%%JJ%J%%%%j%%j%%j%%%J%J%%%j%%%j%%%%%%%%%%J%%%J%%%J%%%%%j%j%%J%%J%
55127B%%%j%j%%%%%%J%%%%%j%j%jj%j%%%J%J%%%%%J%%J%J%%%%%%%%%%%%%%jj%%%%J%%J%%%%%%%
55056A%%j%%%%j%%%%%%J%J%J%%%%%j%%j%jj%%j%%%JJJ%J%%j%%%%%JJJJJ%%jjjj%j%j%%%%J%%%%
54985@%%%%%%%J%%j%j%j%%J%j%%J%%%%%J%JJ%J%%j%%%%%jj%j%%%JJ%%%%%%%%%j%%%%%%%J%%j%%
54913@%%%%%J%%%jj%%%%J%%Jj%%%j%%J%%J%%%%%j%%j%j%jJ%J%JJ%J%j%jj%%%%%%%%%j%%jJ%JJJ
54842A%J%j%%j%j%%%%%%%%%%jJ%%J%%%J%%J%%%j%j%j%j%%j%J%%J%%%J%J%%%%%j%j%j%%JJJJ%J%
54771C%%%%%%j%%jj%%%%%%%%%%%%%%%%%%%%j%j%j%J%JJ%%%%%%j%%J%%J%%%%%%%%j%%%J%%%J%%%
54699B%%%j%j%%%%J%J%Jj%%j%%%%%j%%jj%J%J%J%%%%%j%%%%%%%J%%%%j%%%%J%%%%j%%J%%J%j%%
54628Aj%%%%%%%j%%%%%%%%j%%j%%%J%%J%J%%%%j%j%%%JJJJJJ%%%j%j%%%j%%%%j%%%j%%%j%%J%J
54557@J%%%%%%%%%%j%j%j%%%%JJ%%%%%%%%j%%%%%%%J%%%J%%%%j%j%j%j%%J%J%%%%%J%%%j%%%%%
54485a%%%%j%%J%%J%%j%%%%j%%%JJJJ%%%j%%%J%%%%%%j%j%%%%%%j%j%j%J%J%J%%%%J%%%%%%%%%
54414A%j%%%j%J%%J%%%%j%%%%%%J%%%%J%%%%j%j%%%%%%%jj%jJ%%J%%%%%%%%%%%%%%J%%j%%j%%%
54343bJ%J%J%%j%%%%%%%%%%j%%j%%%%%%%%%%%J%J%j%j%J%%%%%%%%%%%%%%%%%%J%Jj%%%%%%j%%j
54272bJ%JJJ%j%%J%J%%jjkjjjJ%JJ%%j%%%%%JJJJJ%%j%jj%%J%J%%%%j%%%%%%%%j%%J%JJ%j%%%%
54200B%%%%%J%%%%jjj%%%%J%%%%%%%%%%%%%%j%%%j%J%%%j%j%j%%J%JJJ%%J%%j%%%j%%jJ%%%Jj%
54129@%%%J%j%j%j%%%J%%J%J%%J%j%%j%%%J%%%%j%%j%%%%%%%J%%%%j%%j%%%%J%%%%J%J%J%%%%%
54058B%%%%%j%%%j%%%%%%%%%%j%j%%%%J%JJ%%%%j%j%%%%%J%%%%%%%%J%%J%j%j%j%%%%j%j%%%J%
53986b%J%%%%%%%J%%J%J%%j%j%%%J%%%j%j%%%J%%j%%j%%JJ%%%%%%%%%j%%%%%%%%%%%%J%%%J%%%
53915A%j%jj%%%%J%J%%%%%%%%%%%%%j%%%%J%J%J%j%%%%%%%%%%J%%J%%%j%%%%%%%%%%jj%j%J%%%
53844@%%%%%%j%%%J%%%j%%%%%%j%j%%J%%JJ%%%J%%J%%J%j%%j%jJ%%%j%j%%JJ%J%%%j%j%%%%%%%
53772@j%%%%%%%J%%%%%%J%%%j%%j%%%%%%j%%%J%JJJ%%%%%j%%%%%j%%%%j%j%%j%J%%J%J%%%%%%%
53701@j%%%%%%%%%%jj%%%%JJJKJ%J%%%jj%%%%%J%%j%%j%j%%%%j%j%%%j%J%%J%J%%%j%%j%%J%J%
53630@%%%j%%%%JJ%%J%%%%%%%%jj%j%%%%%%%%J%J%%%%%j%j%J%J%%%%%%%%%J%%%%%%%%j%%%%%%j
53559@%%%%%%j%%%%%J%%%%%%%%%J%%%j%%%j%%%%%%%%%J%%%%jj%%%%%%%JJ%JJ%%%%%jj%j%%%J%J
53487A%%%J%%j%%%j%%j%%%%J%%%%%%%%%%%%%%%%J%%%%j%%j%%%%%j%j%%J%J%%%%%%J%J%%%j%%%J
53416A%%%%Jj%%%%%%%J%%j%j%j%%%%%j%j%%%%J%J%J%%%%%%%%J%%J%J%j%jjj%%%%%%%%J%%J%%%%
53345A%%j%%%%%J%%%%%j%j%%%%%%%%%JJ%J%%%j%j%%%%%j%%%%%%j%j%J%JJJ%%%j%j%j%%J%%J%%J
53273A%%j%%%%%%J%%J%%%%j%%%%%%%%%J%%j%jj%j%%%%%JJ%%J%%%%%%J%%%%%%%%%%%%%%%%j%j%%
53202@%%%j%%j%%j%%J%%J%%%%%%j%j%J%JJJ%%%%j%j%%j%%J%J%%%%j%%%%J%%%%j%%%%j%%%J%J%J
53131A%%j%j%%%%JJJ%%%%%%j%J%%%%%%%%%%%%%%j%%j%j%%%%%%%%%%%%%%%J%J%%%j%%%%J%Jj%%j
53059@%%j%j%%%J%J%%%j%j%%%%JJJ%J%Jj%%j%%%%%%%%J%j%%%j%%j%%%%%%%%%%%%%J%%%%j%%%%J
52988@%%%J%%j%%J%%%Jj%jjj%J%J%%%%j%%%J%%%J%%%%%j%j%%j%J%J%%%j%%J%J%%%%%%%%%%J%%%
52917B%j%j%%%%J%JJ%%%%%%%%%j%j%%%%%J%%%%%%%%%j%%%%%j%%%%J%%%%jjj%j%%JJ%JJ%%%jjj%
52845bj%%J%J%Jj%%%%%%%%%J%%%%j%%%%%%%J%%J%J%%j%j%%%j%%%%%%%%%J%j%%%%J%J%j%j%%JJJ
52774B%Jj%jjj%%JJJJJj%jj%%%%%%%j%jj%%%%%%%%J%J%%%%%%%%j%%%%%%J%%%%%%%%%j%%%%J%%j
52703a%%%%j%%%%Jj%%%J%J%J%J%%%%J%%%%j%%%%%%%%%%j%%%%%j%%%%%%%%J%%%j%j%%%J%%%%%%%
52632@%j%%j%j%%%%JJJJ%%%%%%%%j%%%%%%%%%%%%%j%%%J%%%%%jj%j%J%JJ%J%J%%jjjj%j%JJJ%J
52560AJ%j%jj%%%%J%%%%%%%J%%J%J%J%j%jjj%%J%%J%%J%%j%%%j%%%%%%%%%%%%%JJ%J%%%%%%%%j
52489C%%j%%jj%%%J%J%%j%j%%%%J%j%%%%%%J%%j%jj%%J%%J%j%%Jj%%j%%%%%%%J%%%%%%J%%J%J%
52418B%%%%%%%j%%%%%%J%%%%j%j%j%%j%%j%%%J%J%JJ%JJ%%%%%j%j%%%%%%%%%j%%J%%j%%j%J%%%
52346@j%%%%%J%%%j%%%%J%%J%%%%%%%%%%J%%%j%j%%%Jj%j%j%%%%%J%J%%J%%j%%%%%%j%J%JJ%J%
52275C%j%jj%%%%%%%%j%%%%%%J%%JJ%J%j%jj%%%%%%jj%j%%J%J%J%%%%%%%J%%%j%%%%%%%%jj%j%
52204c%%JJJ%%%%%%%%%j%%J%%%%%j%%%J%%%%%%%%%%J%%J%J%J%jjjjj%%%%%%j%%%JJ%JJJ%%j%jj
52132@j%%%j%%%J%Jj%%%j%%%%%j%%%%J%JJ%J%%%j%%j%%J%J%%%%%%%%%%%%%%%%%%%j%%J%%J%%j%
52061Aj%jJ%%%J%%%%J%%%%jjj%j%%%%%%%J%JJ%%%%%%%j%%%J%JJ%%%j%j%%%%%j%%%%j%%%%%J%%%
51990@j%j%%%J%J%%%%j%j%%%J%%%jJ%J%J%%%%J%j%j%jj%%%JJJ%%%%%%%j%%j%j%J%JJ%J%%%%%j%
51919A%%%%%%j%%%%%%j%%%%%%J%%%%%j%%%%J%%J%j%%%%%%J%%%%%%j%%%%%%j%%J%%J%%%%%%Jj%%
51847A%%%J%%%j%j%%%%%%%%%J%J%%%%%jjj%%%%J%%%%%JJJ%%%jjj%j%%%J%%J%J%%J%%%%%%%%jjj
51776@jj%J%J%%%%%%%%%J%j%jjj%%%J%JJ%%%j%j%%%j%%%%%%J%%J%%%%%%%J%%J%%%j%j%%%%%J%J
51705A%J%Jj%jj%j%J%%Jjjjj%%JJ%J%%%%j%%J%%%%%j%j%%J%J%%J%%j%J%J%%%%j%%%%%j%j%j%%%
51633b%JJ%%%%%J%%%%%J%%%%%%%%%%%%j%%jjj%%%%%J%%J%%%%j%%j%J%%J%%%j%%J%J%J%%J%j%%%
51562B%j%j%j%j%%J%JJJ%%%%j%j%%J%%%%%%jj%jj%%J%JJJ%J%%%%j%%j%j%%%%JJJJJ%%%%j%%j%j
51491A%%%%%%%%jjj%j%%JJ%J%J%%%j%%%%%%J%J%%%%%jj%j%j%J%J%%%J%%J%%J%J%%%%%j%j%j%%J
51419B%%%j%j%j%%J%%J%JJJ%Jj%jjjjj%%%%%%%%%%%%%J%%%%%%%%j%J%J%Jj%j%%%%J%%%%%j%%%%
51348@%%%%j%%jJ%%J%J%%%%jj%j%%JJ%JJ%j%j%%%%%%%%%%%%%j%%%J%%J%%J%%%j%%%%%%J%%%%%%
51277Bjj%j%jJ%%%%%j%j%%%%J%JJ%%%%%j%J%J%J%%%%%%%%%%%j%J%%J%%jj%j%j%J%J%%%%%%J%J%
51205C%%j%j%%%%J%%%%%%jj%j%j%%%%%J%%J%J%j%j%j%%j%j%%%JJJK%J%%%%%J%%J%%%%%j%jj%%J
51134B%J%j%%j%%%%J%%%%%j%%j%j%%%%J%J%%%%jj%%%%%%J%%%%jjj%%%%JJ%J%%%j%%%%%%J%%%%j
51063a%j%%J%JJ%J%%%j%%j%%%%%%%J%%%J%%J%jj%j%j%%J%%J%j%j%%%%J%JJ%J%%%j%%j%%J%%%%%
50992B%%j%%%%%%%%%%j%%%%%%j%%%%%J%%J%J%%%j%%j%J%%%%j%j%J%%%%%%%%%%J%%%%%j%j%J%%J
50920A%%%j%%%JJJJ%%j%j%jj%j%%j%%%%%%JJ%%J%%%j%j%%%j%%%j%%%J%%J%%%%%jJ%%J%J%J%J%%
50849CJj%j%j%%%j%%j%%%%%J%%%j%j%%%J%%%j%%%J%JJ%%%%%%%%%jJ%%J%J%jjj%j%%J%%%j%%j%%
50778b%%%J%J%J%%%%%j%j%jj%%%J%J%J%%%jJ%%%%%J%%j%%j%%%J%%%%%%%%%J%%%j%%%JJJ%%%%jj
50706A%%j%%%%%%%J%j%%%%j%J%J%JJ%%%%j%%%%J%j%j%jjj%j%%JJJJJJ%%%%%jj%jj%%%%J%J%%%%
50635A%%%j%%J%J%%%%%%jj%j%%%%%J%%j%%j%J%J%%%%%JJ%J%%%j%j%j%%%%%j%%%%J%JJ%%%%%%J%
50564CJ%J%%j%j%%j%%%%%%%%jj%%%%%%%%j%%%J%J%J%%J%j%j%j%%%JJJJJ%%jj%jjj%%%%J%%%%jj
50492a%j%%J%J%%%%%%%%%%%j%%j%J%%%%%J%Jj%%jj%%%J%J%J%%%%J%%%%%j%%%%%J%%%%%%%j%%%%
50421A%j%%j%%%%j%%%%J%JJ%%%%j%%J%J%%%%jj%j%%%j%%%%%%%%J%%%%Jj%%J%%%%%%J%J%J%j%%j
50350A%j%%%%%j%%%%j%%JJJJJ%j%jjjj%J%JJ%%j%%j%%%%%Jj%%%%J%J%%J%j%%j%%j%%%%%j%%j%%
50279c%J%J%J%%%%%jJ%%%%%%%%j%J%JJ%%Jj%j%%%%%%%%%%%j%j%%%%%J%%J%j%j%j%%J%JJJ%J%%%
50207CJj%%j%j%%j%%%%%%J%%J%%j%j%%%%%J%%%%%%%%j%%J%%%%%J%%J%jjjjj%j%%J%J%%%%%J%%%
50136@%%J%%%%JJ%J%%jj%j%%%%%%%%%%%j%%%%%J%%%%%%%j%j%%%%%%%%%%%%J%%J%J%%%%j%jj%j%
50065b%%%%J%%%j%%%J%%J%j%%%JJ%%%%%j%%%%%%%%%%%%J%%%j%j%J%%%%J%%%j%%%%%%J%J%J%%%%
49993Cj%%%%j%j%j%%%J%J%%%%%%%%%%%%%j%j%%%%%%%%%%J%%%%%%j%%J%J%j%%%%%%%%%%%%%J%%%
49922A%j%jj%%JJJ%J%%%%%%j%%%%%%J%%%jj%j%%%%%J%J%%j%%j%J%%%%%j%%j%%%J%%%%%%%%%%%%
49851a%%j%%%%J%J%%%%j%%%%%%%%%%%%%%%%%%%J%J%%J%%%j%jj%%%%%%j%%%J%JJ%%%%j%%%%%%%%
49779@Jj%%%%%%%%%j%j%%JJ%JJJ%%%jj%j%%%%J%%J%J%%%%jjjjjjj%%%J%JJJJJ%%%j%%%%%%%%%%
49708AJ%%j%%j%%%%%%j%%%J%J%%%%%%%j%%%%%%J%%%%%j%%%%%%JJ%%J%j%%j%%%%%%%%j%%j%%j%%
49637bJ%J%J%J%%%%%jj%j%j%%%%%J%%%%%%%j%%J%JJJ%%%%j%%%%j%%%%%%%%%j%j%jJ%J%J%%%%J%
49565A%j%%j%%J%%%J%J%j%%j%%%%%J%%j%%J%%j%%j%%%%J%j%%%%j%J%%J%%%%J%%%%%%%j%%j%j%%
49494b%%J%J%J%J%%%%%%%jjj%j%j%%%%%%%%%%%%%J%J%%%J%%%J%%%%j%%j%%%J%%%%jJ%%%%%%%%%
49423@J%%%%%%%%%%j%%%%%J%%j%j%j%J%%J%J%j%%jj%j%J%JJJJ%J%%j%%J%%%%%j%%%%%%j%%j%%%
49352@%%%%%%%J%%%%%%%%%%%%%J%Jj%j%j%j%%j%j%%JJJ%JJ%%j%j%%%%%%J%%%J%%%%%j%j%jj%j%
49280c%JJJ%J%%%%j%%%%%%%%%j%%%J%J%%%%%jj%j%%%%%%%%%%J%%%%%J%J%%%jj%j%%J%J%%%J%%%
49209Aj%%%%j%%%%JJ%J%%%%%%j%jj%%%J%%%%%%j%%JJJJJJj%j%j%%J%J%J%j%jjjj%%%%%%%%%%j%
49138aj%%%J%J%%%%j%%%j%J%%J%J%%%%%j%j%%%%%%j%%J%%%%%%%%%%J%%J%%%Jj%j%j%%J%J%%%%%
49066Aj%%%J%%%%%%jj%j%%%%%J%%J%%j%%%%J%j%%J%JJJ%%j%jjjjj%jJ%JJ%J%%%%%%j%%%%J%%%%
48995@%%J%%%%%%%%%j%%J%%J%j%j%%%%j%%%%%J%%J%j%j%%%J%%%%j%j%j%J%%%J%%%%j%%%%J%J%%
48924@%%%%%%J%J%%%j%jjjj%j%%%%J%JJJJ%J%%%%j%%%%%%%%%jJ%%J%%jjjj%%J%J%Jj%%%%%%J%J
48852B%%%%%%%%j%%j%%%J%J%%%jj%j%%%J%J%J%j%%jj%j%JJJ%J%j%%j%j%%%%%%%%j%j%j%J%%JJJ
48781@KJ%J%j%jjjj%%%%JJJJ%%%%j%%j%%%%%%j%j%%%%%J%%%%J%J%%%jj%j%%%%%%%%%%%j%%%%J%
48710aJ%%%%j%%%%%JJ%%Jj%%%%J%%%%%%j%j%%%J%%Jj%j%%%%%J%J%%%j%jj%j%%%%%%J%JJ%%%J%%
48639B%%%j%%%%J%%j%%j%j%%%J%%%%%%%j%%j%%%%%%%J%J%%%j%j%%%%%%J%J%%%%%%J%j%%j%%J%J
48567A%J%%%%j%%J%J%j%%%%%%%j%j%jj%j%%%%%J%%J%J%%%%%j%j%%j%%%JJ%JJJ%%jj%j%%j%%%j%
48496c%%%%JJJJ%%%%j%j%%%%%%%%%%%%%J%J%%%%%j%j%%J%JJ%%%j%j%%J%%%%%%%%%%j%%%%J%J%%
48425B%%%j%j%%%%j%%j%%%J%%J%J%%%%j%%%%j%%j%%J%J%%%%%%J%%%%%%j%j%%J%%%%%%%%J%JJ%%
48353Cjjjj%j%%%%%JJ%J%J%%Jj%jjj%%J%%%%%j%%%%J%JJ%%j%%%%j%%%%J%JJ%%j%kj%%%%J%J%%j
48282@%%%%%J%%j%%%%%%%%%%%j%%j%%J%%%J%j%%%j%J%J%%J%%j%%%%%%%%%%j%%%%%%%j%%%%%%j%
48211c%%%JKJJ%%%%j%%%%%%%%J%%%J%%%Jj%j%jj%%%Jj%%j%J%%J%%%J%%j%j%%%%%%%%%%J%%jj%%
48139a%%%J%j%j%j%%%JJ%J%%%%%J%%J%j%%%%j%%%%%j%%%%%JJJ%J%%j%j%%j%j%%j%%%j%J%%%%%%
48068bJ%j%%%j%J%JJJ%%Jj%%%%%J%%%J%%%%%%j%j%j%%%%%%%%%%%%%j%%%%j%%%J%J%J%%%%j%%j%
47997a%%%J%%%%%%%%%%%J%%%j%j%%%%J%J%%%j%%j%%J%%%%%jj%j%%J%JJ%J%j%j%%j%%%%%J%J%%%
47926@%%j%j%%J%%%%%%%%J%%%%j%j%%%%%j%%J%JJ%%%%%%%%%%J%%Jj%%j%%%%%%%%%%%%%J%J%j%j
47854@j%%%%J%J%%%%%J%%J%j%%%%%%j%%%j%j%j%J%JJJ%%%j%%%%%%%%J%%j%%%j%%%%%%%%%j%%%%
47783aJ%%%J%J%%%j%j%%j%%%%J%%%%%%%%%%%%%%%%%%%%%%%%%%J%%%%%%%%%%%j%j%%J%%%%%%%%%
47712@%J%%J%J%%%%%%j%j%%j%j%%J%J%%j%j%%%%j%%%%%%J%%%J%%J%%Jj%%%%%%%%%%%j%%%%%%%%
47640@%%j%%%j%%J%%%%%%%%%%%%J%JJ%%%%j%%%%J%%j%%%%%%%%%%j%%j%%%%%%%%j%j%%%%JJJJJ%
47569B%%%%j%%j%jj%%%%%J%%%%J%J%%%%j%j%%%%%J%%%J%KJ%Jj%jkjkjj%%JJJ%J%%%j%j%J%%J%J
47498A%J%%%j%%j%%%%%J%%%%%%%%%%%%j%%%%%J%%J%J%%%%j%j%jj%j%J%J%%%%j%%%%%%%%%%%%%J
47426@%%J%%J%%%%%%%%%%%%j%%j%%j%j%J%JJJJ%j%j%%J%%%%%J%%%%jj%j%%%%%%j%%%%%J%%%j%%
47355ajJ%%%%%%%%%%%%J%%J%%%%%jj%j%%j%%jJ%%%J%%J%J%J%%%%%jj%%j%%%j%%%J%JJ%J%%%J%%
47284B%%%%j%%%J%J%jjj%jj%%%%%%J%J%%%%J%%%%j%%%%J%J%%j%j%%%J%J%%%j%%%j%%%%j%%jJ%%
47212a%%%%%%%%%%%%%J%%J%%%%%%J%j%jj%%%J%J%%%%J%%%j%jjjj%%%J%J%%%%%%%J%%J%%%J%%%%
47141B%j%%%%J%%%j%%jj%j%%%J%J%%%j%j%%%J%%J%%%%%j%%J%%J%j%%%jj%%%%%%%JJ%J%%j%j%%%
47070a%J%J%%%%%j%jj%%%JJ%JJJ%J%j%%jj%j%%%%%j%j%%J%JJJ%%%j%j%%%%%j%%jj%%%JJJJJ%%j
46999Aj%%j%%%J%%%%%%%%%%%%%%%%%%%%%%%%J%%%%%jj%J%J%%%%%j%%%%%J%%%%%J%%%%%j%%j%%J
46927A%%%%%j%%%%%%%%%%%%%%j%%%%J%J%%j%j%%%%%%%%J%%J%%%%%%%%%j%%j%%j%j%j%%JJJ%Jj%
46856a%j%j%%J%JJ%Jj%%%j%%%%%%%%%%j%%%%%J%%%%j%j%%%%%J%%J%J%%%%%J%J%J%%j%%%J%%%%%
46785C%j%%%%j%j%jj%%JJJ%%%%jjj%j%%%%JJ%J%J%%%%%%%%%J%%%j%%%%%j%%%%%%%j%%%%%%J%%j
46713a%%J%JJ%%%%%%%%%jj%%%%J%%%%j%%J%JJ%j%jj%j%%%%J%J%%%%%%%%j%%%JJ%%%%%%j%j%j%%
46642a%%%%%%J%%J%%%%%%%%%%%%j%%%%j%%%J%%%%%%J%%j%%J%%J%%jj%jj%%%%%%%%J%%J%%J%%j%
46571@jj%%%%JJ%J%%%%j%%j%%%%Jj%%jj%%%J%J%%%%J%J%%%%%%j%%j%%%%JJ%J%%%j%j%%jj%%%%%
46499b%%%%J%%%%%J%%J%%%j%j%%%%j%%%%%jj%j%%J%J%JJJ%J%%J%%%%%j%j%%%%JJ%J%j%j%j%%j%
46428a%%%%%%J%%%%j%%%%%%J%%%%%%j%%j%%%JJ%J%%%j%j%%%%J%JJJJ%Jj%kjkjj%%%jJ%%JJJ%J%
46357Aj%%%j%%%%%%%%%%j%%%%%j%%J%%%J%%%%%%%%%%J%%J%%j%j%%%%J%%%%%j%J%%J%%%j%%j%%%
46286a%%J%%%J%%%Jj%%%%%%%%%j%j%j%%%J%J%%%j%j%jJ%J%J%J%%%%%%Jj%%%J%J%%%%%j%j%j%%%
46214@%%j%jj%%%%J%JJJ%J%%j%%j%j%%%%%%%J%%%%%%%%%J%%j%jj%JJJ%J%%j%j%%%J%%J%%j%%j%
46143@%%J%%%J%J%%%%j%jj%%j%%%%%%%%%%%J%J%J%%%%j%%%%%%J%%%%%j%%%%j%%%j%j%J%J%%J%%
46072Aj%%%%%%%j%%%%%%%%%%%J%%%%%%j%%j%%J%J%J%j%%%%%%%J%%%%%%%%%%%%%%%%%%%%%%%%J%
46000B%%j%jj%j%%%J%JJ%J%j%j%%j%%%%%%%%J%%%%%%J%%%J%J%%j%%%j%%%j%%%%%J%%%j%%j%%%%
45929aJ%%%%%%j%%%JJJJ%%%jjjj%%J%J%J%%%%%%%j%jj%%%%j%j%J%%J%J%%%%%%%%%%%%%%%%%j%%
45858a%%%%%J%J%j%j%j%j%J%JJ%%%%j%%%%%J%J%%%%%%%%j%j%J%%%%%j%%%%%JJ%J%jjj%%%%J%%j
45786a%%%%J%%%%%%%j%%%%j%%J%%%J%%%J%%%%%%j%jj%jJ%J%J%%%%%%%%J%%%%%%%%J%j%%jj%j%j
45715cJ%J%J%J%%%%%%%%%%%%%%%%%j%j%J%JJ%%%%jjjj%%%%J%J%J%j%j%j%J%%%%%%%%%%%%%%%%%
45644a%J%%J%%%%%%%j%%j%%%%%%%%J%%%%j%J%J%%%%%%%%%%%%%%J%%%j%jj%%%%%%%J%%Jj%%j%J%
45572@%J%%J%%%j%j%j%%J%%J%%%%j%j%%%%JJJ%%%%%j%%%J%%%%%%%j%%%J%%j%jjjjj%JJ%JJ%%%%
45501@%%j%%j%%J%%%%J%J%JJ%%%%%j%%%j%j%%j%%J%%%%%%%J%%%%%j%%J%%%%%j%%j%%%j%%%J%J%
45430@%%%J%J%%%%%j%%%%%j%j%%%%JJJ%%j%j%%%J%%J%%j%%jjjjj%%J%J%JJ%JJ%%%%%%%%%%%%%j
45359A%j%%J%%J%%%j%j%%j%%%%%%j%%%J%JJJ%j%j%%%%%%%%%%%%%J%%%%%%j%j%%%%%%J%J%%%%%%
45287A%%%%%j%%j%j%%%j%J%J%%J%%J%%%J%%j%%%%%%j%%%%j%j%j%J%JJ%J%%%%%%%j%%%%j%%%%%%
45216a%%%%%%J%%%%%%j%%J%%%j%jj%j%JJJJJ%j%%%%%%%%%%j%%j%J%%%%%%%J%%%%%%%%%%%%%J%%
45145A%%%%%%%J%%%%jj%%%%%J%%%%%%%%j%%%%%%%%%%J%%%%%j%%%%%%J%%%%%j%j%j%j%J%%J%J%%
45073@%%%%%%%%%j%jj%%%JJJJJ%Jj%%j%j%j%j%%%J%%J%%J%j%J%%%Jj%%jj%j%%j%%J%JJJ%%%%%%
45002A%%%j%%%%J%j%j%%%%%%%%J%%%%%%j%%%%J%%%Jj%%j%%%%%J%%J%%%%%%%%%%j%j%%%j%%j%%%
44931c%J%J%J%J%%J%J%%%%jjjj%j%%%%%J%J%J%%%j%%%%J%j%j%%%%%J%J%%J%%%%%%%%%%j%j%j%%
44859a%%%%J%%J%%%j%%j%%%%J%%%%j%%%%J%%j%%%%j%%J%JJ%J%%%J%%%%%%j%%%j%j%j%%%%%%j%%
44788b%%%J%%J%%%%%J%%%j%%%%%%J%%%%%%J%%%%j%j%%J%J%Jj%j%j%%j%%%%%%%%J%%J%j%j%j%%J
44717aJ%J%J%%%%%%%%j%%%%%j%%%%J%%%j%%j%%%%%%%J%%J%%%%jj%jjj%%%%J%JJ%JJ%JJ%%j%Jj%
44646B%%%%%%%%Jj%%j%%%%j%%%%%j%J%%J%J%%%%%j%%%j%%%j%%j%%%%%%%%J%J%J%%%%%%%J%%%J%
44574CJ%J%%j%j%j%jjjj%%J%JJJ%%%jjj%J%%%%%%J%%j%%%%%%%%%J%J%%%j%%%%%%%%%%%%jj%j%%
44503b%J%%%%%%%J%%%%%%%%%%%%j%%j%%%%%%J%%%J%%%j%j%%%%%%%%%%%%J%JJ%J%j%j%jJ%%%%%%
44432@%%j%%j%%J%JJ%%%%%j%jj%%%%JJ%J%%%%%j%j%%%J%%J%j%j%%%%%%%%%%%J%%J%J%j%j%j%%J
44360@%JJ%JJJ%%%jkjj%%%%J%J%%%%%j%%j%j%%J%J%%%%%%%%%%%%%j%%%%J%J%J%%%%%j%%j%j%j%
44289a%j%j%%%%%J%%J%%%%%jJ%J%J%%%%%%%%%Jj%%%%%%%%J%J%Jj%%jj%j%j%%%%J%%%%%j%%%%%%
44218a%%%%%jJ%J%J%JJ%%%%jjjjjj%JJJ%J%%%%%j%j%%%%J%%%j%j%J%JJ%%%j%%%%JJJJ%%j%jjjj
44146a%jJ%JJJ%J%%j%%j%%%j%%%%%%J%%%%%%%%j%%j%%%%%%%%%J%j%%%J%%%JJ%J%J%%j%j%%%%%j
44075A%j%%%%%%j%%J%%%j%j%%%J%%%J%%j%j%j%%%J%JJJJ%%%%jj%%J%%%%%%%%j%j%%%%%%J%JJ%%
44004B%%j%%%j%j%j%%%%JJJ%J%%%j%j%%%%j%%%%j%%%J%JJ%J%j%jj%j%%%JJJ%J%%%j%j%jj%%%%%
43932b%%%%%%J%%%%%%j%%J%J%%J%%%%%%%%%%%%j%J%%%Jj%%%%%JKJJ%%jkkjkj%%%%JJ%%%%j%%%%
43861b%J%%Jj%%%jJ%J%J%j%%j%j%%J%%J%%%%j%j%j%%jJ%JJJJJJ%j%%j%%%J%%%j%%j%%%%%J%%%%
43790A%%j%jj%%%%J%%%j%jj%JJJJ%J%j%j%%%%J%%%%%%J%%%%%%%%%%%%%%%J%j%%%j%%%%%%jJ%JJ
43719BJJ%%%jjjjj%%%%%%%%j%%%%%%J%%J%%%%%%%%j%j%j%%%JJJ%%%%j%j%%%J%J%J%%j%j%%j%J%
43647aJ%J%JJ%%J%j%%j%%j%%j%%%%%jJ%%JJ%J%%%%jj%j%j%%%%J%J%%%j%%j%%j%%%%%J%%%%%J%j
43576a%jj%%%%JJ%JJ%%%%%%%%J%j%jj%jj%%%J%JJ%%%%%%%%j%%j%%%J%%JJ%%%%j%j%%%J%%%%%j%
43505aj%j%%%%%%J%%J%%%%j%%J%%%%%%J%JJ%%%%j%%%%%%jj%j%%%%JJ%J%%%j%j%%%%J%%J%j%%j%
43433aJ%%%%%%%%%%%%J%%%%%%%j%%%%%%J%j%%j%j%%%%J%%%%J%%%%j%%J%%J%J%%%%%%j%%%j%%j%
43362a%j%%%%J%%%%j%%%%J%JJ%%J%%j%%j%%%%%%%%%%%%%%J%%%%j%%jj%%%J%%%J%J%%%%%%%j%j%
43291ajjj%%%%J%JJJ%J%%%%%%%j%%%%%%%%J%J%%%j%j%%%%J%%J%%%%j%jjj%j%%J%J%%%%%%%%%%%
43219a%%%%%%%%J%%J%%%%%%jj%j%%%%JJ%J%%%%%j%%%J%%%%%J%%%j%j%%%%%%%J%%%%%J%%%%%j%j
43148@jj%j%%%JJ%J%J%jj%j%%%JJ%%%j%j%j%J%%J%%J%J%%%%j%%%%%j%%j%%J%%J%%J%j%%%%%%%j
43077a%%%J%%%%%%j%%J%J%J%%J%j%%j%jj%j%J%J%J%j%%%%%%%%%%%%%jjj%%%J%JJJ%J%%%j%j%%%
43006@J%J%J%%%Jj%%j%jjjj%%%%%J%J%J%J%j%j%j%%J%%%%%%%%%J%J%%j%j%%%J%J%%%%jj%j%j%J
42934a%%J%%%%%j%%%J%%%%%%%%%%%j%%%%%%J%%%%%j%%%%J%%%jj%%%J%J%J%%j%%J%J%%%j%%%J%%
42863B%%jj%j%%J%%%%%%%%%J%%%%j%%%%J%%%%j%%jj%%J%JJ%%%jj%%%JJJJ%%jj%j%%%%J%J%%%%%
42792B%%%%j%%j%%j%%%%J%%%%j%%%j%%%%%J%%Jj%%%%%%J%J%%%%jj%jj%%J%J%J%%%%j%%j%%%J%J
42720@J%%%j%j%%%%%%J%J%J%%%%%%J%%%%%%jj%%%%J%%J%j%%j%j%%%j%%J%%%J%J%j%j%j%j%J%%%
42649aJ%%%%%%J%%%%%%%j%%%%%j%%%%%J%%%%%j%%%%%%%J%J%J%J%%%jj%j%j%%j%%%%%J%J%J%%%%
42578Aj%%%%%%%%%%%%j%%%%%JJ%J%%jjj%j%%%%%%%%%%%J%%%%%J%J%%%j%jj%J%J%%%J%%%j%j%%%
42506aJ%%%%j%%%%J%%%%%%j%%%j%%%J%J%%%%%%%%%%%%%%j%j%%J%%J%J%%%%j%%%%j%%j%%j%%J%J
42435aJJ%J%%jj%j%%J%%%%%%%J%J%%%%%%%j%%%%%%%%%%%%%%%%%%%%%%%j%%%%%%%%%%%j%%%J%%%
42364@%%%jJ%%J%%%%j%%%%%%%%%%J%%J%%%%%%j%%j%%%%%%%%J%%J%J%%jjjjj%j%%%%%%%%%%JJJK
42292B%J%%%j%j%j%jj%j%%%%%J%%%J%J%J%%%J%%%%%jjj%jJ%J%J%%%j%%%%%%%%%%j%j%%J%J%J%%
42221Aj%%%%%%J%%%%j%j%%J%%%%%%j%%%J%JJ%%%jj%j%%J%J%J%%%j%%j%%j%%%%%%%%%%%j%%%%%J
42150a%J%j%%%%%%%%%%%%%%%%%JJ%JJ%J%j%jjj%%%JJ%%j%j%j%j%J%JJ%%%Jj%%%%J%%%%j%j%j%j
42079b%J%J%J%%Jj%j%%j%jj%%JJJJJJ%%%jj%jj%%J%%%%%%j%%%%%%%j%%%%%%J%J%J%J%%%%%j%%%
42007A%%%%%%J%J%%%%jj%jjj%j%%%J%%%J%J%J%%%j%j%j%%%J%J%%j%j%%%%%%%J%J%%J%%%%%%j%%
41936@j%%J%%%%%%%%%%%j%%%%jJ%JJJJ%%jj%j%%J%J%j%jj%J%J%%Jj%%%%j%%j%%%%J%%J%%%%j%%
41865@%%%%%%%%%%%%%%%%%%%%%%%%%%%%%%%j%%%J%%%%j%%%%J%JJ%%j%jj%%%%J%%%%%%JJ%%%j%%
41793Aj%j%%%%JJJ%%%%jj%jj%%%JJ%JJ%%%%j%j%j%%%%jj%j%%%JJJJJ%J%%%%%j%j%%J%%%%%%%%%
41722AJ%j%%%%%%%j%%%%%J%j%%J%j%j%j%%j%%%%%%%%J%%J%%%%%%%%%j%%%%%J%%%j%%%%J%J%%%%
41651@%%j%%%%JJK%J%%jjjjj%%%%J%%%j%%%%%J%%%%j%%%%JJJ%Jj%%j%%j%%%J%%%%j%%%%%%j%%%
41579a%%J%%%%%%%J%%%j%%%%%%J%Jj%jjj%%J%%%%%j%%%%J%%%j%%%%%%%%%%%%J%J%%%J%j%%j%j%
41508b%%%jJ%%JJ%J%%%%j%%%%%J%J%%j%%j%%J%J%J%%j%k%j%%%%J%J%%j%%J%%%%%j%j%j%j%%Jj%
41437c%%%%%J%%%%%%J%J%J%%j%j%%%%J%%%%%j%%%%J%%J%J%%%%%%%jjj%%%%J%%%j%j%J%JJ%%J%J
41366C%%j%j%j%%%J%%%%%%%jj%j%J%J%%%%j%%%%J%J%J%j%%%%J%J%%jjjjj%%%J%J%%%%%j%%j%J%
41294aJ%%J%J%j%jj%j%j%%J%J%J%J%%%%j%%%J%%J%J%%%j%jjj%%%%%j%J%%J%%%%jJ%%%j%j%%%%%
41223b%%%%J%%JJ%%%%jj%j%%%J%J%%%%j%%J%%%%%%j%%%JJ%JJ%%j%%j%%J%J%%%%j%%%%%%%%%j%%
41152Aj%J%%J%%%%jj%jJ%J%J%%%%j%%%%%j%%%j%%%j%%%J%JJ%J%%J%%%jjkjj%%%J%JJ%%J%%J%%J
41080C%%%%j%%%%j%%%%%%%%j%%%jJ%%%j%j%%%%%J%%J%%J%J%%%%%%jj%jj%%%%%%J%J%JJ%%%%%%j
41009A%%%j%j%%j%%%%%%J%%%%%%J%%%%J%%%j%%%%%%%%j%%%%J%J%Jj%jjj%j%J%J%J%%%%%J%%%jj
40938aj%%%%%JJJ%Jjj%jj%j%J%%J%%%%j%%%%%%%J%%%%%J%J%J%%%%%%jj%j%%%%%j%j%%J%J%%%J%
40866@%J%%%j%%%%%%%%%%J%%j%%j%%%%%%%%%%%j%%%%%J%J%J%J%%%%%j%%j%J%%%j%%%%%%%j%j%%
40795bJ%%J%%%%%%j%%%%%%j%%%%JJJJ%%j%jj%j%%%JJ%J%%%%%%%%%%%%%j%j%%J%%%J%%J%j%jj%%
40724a%%%%J%J%%%%jj%%J%J%%j%jjj%JJ%J%%%%J%%%J%J%%J%j%j%%%%J%%%jj%j%%%j%%%%%%j%J%
40652a%J%J%%%%j%%%%%J%%%j%%%%%%%%%%%%%j%j%j%JJJ%J%%%j%%j%jjj%%JJJ%Jj%J%%%%%J%j%%
40581@j%%%%%%J%J%jjjjj%j%J%JJ%J%%%%%%%J%%%%%%%%%j%%%J%j%%j%%j%%JJ%J%J%%jj%j%%J%J
40510@JJ%J%j%%j%%%%%%%%%%%%%j%%J%%J%%%%%%%j%%%%j%%%J%%%%j%j%%%%%%J%%%%%%J%%%jjjj
40439c%%JJKJJJj%jjjjj%%JJJJ%%%%j%%%%J%%%j%%%%%%%%%%%%%%%j%%j%j%%%%%JJ%J%%%%%%j%%
40367@%%%%J%%%%%%%%J%%%%%%jj%jjj%%%%%J%J%J%J%%%%%%%%%%%j%%%j%%%%%j%j%%%%J%JJJ%Jj
40296A%%%%%%%%%%jj%%j%%J%%%%j%J%J%%%%%%%%%%%j%%%%%%%%%%J%%%J%%%j%%%%J%J%%%%%%%%%
40225B%%%%%j%jj%%%%J%J%j%%%%%%%%%j%jj%j%jJ%JJJ%J%%J%%%%%%%%j%%%%%JJ%%j%%j%%%%J%%
40153AJ%%j%j%jJ%J%J%%%%%%j%j%J%%%j%%%%%%j%%%%%J%%J%J%%j%j%%j%J%J%%%j%j%%%%J%j%%%
40082a%%J%%%%%jJ%%J%%j%j%%%%J%%%j%%%%%%%%j%%%%J%JJ%%%%jj%%j%%J%%%%%%J%%%%%%%%%%j
40011a%%%%%%%J%%J%%%%%J%%%J%%%j%%%%%%%%%j%j%j%%J%%%J%%%%%%jj%%%%%J%%%%j%%%%J%J%%
39939A%%j%%%%%%%%%%Jj%%%j%%jJ%%%%%%%%j%%%%J%%%J%%J%%Jj%%j%J%%%%J%%Jj%j%%%%%%%%%%
39868A%%jJ%%%%%j%j%%%J%j%%j%%%J%JJ%%j%jj%j%%%%J%J%J%%%%%%%j%%j%%j%%%%J%%JJ%%%%%j
39797aJ%%%%%j%%%%j%%J%%J%j%J%%%%%%%j%J%%%%%%%j%j%%J%JJ%J%%%%%%%%j%j%j%j%j%%%J%%%
39726b%%J%%J%J%%%%%%%%%%%%j%%%%%%%%%J%%%%j%%%j%%J%%%%%%%J%%%%%j%%%%%%%%%%%%%%%J%
39654A%%%%%%%JJ%Jj%j%%%j%%j%%j%%%%%J%JJ%%%jj%j%%%J%%%%j%j%%%%J%%J%%%J%J%%%%j%%J%
39583B%%%%j%%J%J%J%j%jjjj%%%J%%J%%%%%%%%%%%%%%%%%%j%%%J%%%%%%j%j%jJ%JJJJ%j%j%%%%
39512A%%jj%%j%%J%%%J%JJ%J%%%%%%%%%%%%%%%j%%%%%%J%J%J%%J%j%j%j%j%j%%j%%%J%%JJ%Jj%
39440C%%j%jjj%j%%JJ%J%J%%J%%%J%J%J%j%%%j%%%%%J%%%%j%j%%%%%j%%%%%J%J%%%%%%J%%%%%%
39369EJ%J%%%%J%%%%%jj%%j%%%%%%%j%%%%%%%%j%%%%%J%J%%%j%%%%J%J%%%%%j%j%J%JJJ%J%%%%
39298IJJ%%jj%%%JJJKJJJJKJLLLMMMLK%%kllllllkkj%j%%%j%j%%%%%J%%kkmllkj%%%%%%%j%%%%
39226Bj%%%%%%%%%%%%%%%%%%%%j%%%%%%%%%%%%%%%%%%%%%%%%%%%%%%%%%%%%%%%%%%%%%%%%%%%%
39155@%%%%%%%%%%%%%%%%%%%%%%%%%%%%%%%%%%%%%%%%%%%%%%%%%%%%%%%%%%%%%%%%%%%%%%%%%%
39084@%%%%%%%%%%%%%%%%%%%%%%%%%%%%%%%%%%%%%%%%%%%%%%%%%%%%%%%%%%%%%%%%%%%%%%%%%%
39012@%%%%%%%%%%%%%%%%%%%%%%%%%%%%%%%%%%%%%%%%%%%%%%%%%%%%%%%%%%%%%%%%%%%%%%%%%%
38941@%%%%%%%%%%%%%%%%%%%%%%%%%%%%%%%%%%%%%%%%%%%%%%%%%%%%%%%%%%%%%%%%%%%%%%%%%%
38870@%%%%%%%%%%%%%%%%%%%%%%%%%%%%%%%%%%%%%%%%%%%%%%%%%%%%%%%%%%%%%%%%%%%%%%%%%%
38799@%%%%%%%%%%%%%%%%%%%%%%%%%%%%%%%%%%%%%%%%%%%%%%%%%%%%%%%%%%%%%%j%Jj%JjJ%j%%
38727a%%%%%%%%%%%%%%%%%%%%%%%%%%%%%%%%%%%%%%%%%%%%%%%%%%%%%%%%%%%%%%%%%%%%%%%%%%
38656a%%%%%%%%%%%%%%%%%%%%%%%%%%%%%%%%%%%%%%%%%%%%%%%%%%%%%%%%%%%%%%%%%%%%%%%%%%
38585a%%%%%%%%%%%%%%%%%%%%%%%%%%%%%%%%%%%%%%%%%%%%%%%Jj%J%%%%%%%%%%%%%%%%%%%%%%%
38513@%%%%%%%%%%%%%%%%%%%%%%%%%%%%%%%%%%%%%%%%%%%%%%%%%%%%%%%%%%%%%J%%%%%%%%%%%%
38442A%%%%%%%%%%%%%%%%%%%%%%J%%%%%%%%%%%%%%%%%%%%%%%J%%%%%%%%%%%%%%%%%J%%%%%%%%%
38371D%%%J%%%%%%%%%%J%%%%%%%%J%%%%%%%J%%%%%%J%%%%%J%%%%J%%%%J%%%%J%%%J%%J%%%J%%J
38299A7%%J%J%%J%J%J%J%J%J%J%JJ%JJ%JJJ%JJJJJJJJJJKJJJKJKJKKKJKKLKKLKLLLLLMLMMNMNN
38229A26OOOOQPQRJ0J0J1J1J3J4J5J7J8J9K2K4K6L0L2L6M1M6N1N8O7P6Q8J01J17J38J61J91K25
38193A850K69L20L80M48N21N89O35O33N54L77J19j69m16n74o39o29n78n08m36l69l10k60k19
38171A588j85j56j34j14r9q5p5o5n7n0m5l9l6l2k9k5k4k1k0j7j7j4j4j3j1j1j0j0qqqpopnonnm
38134A11nmlmmlllllklkkkkkkkjkkjkjjkjjjjjjjjjjjjjj%jj%jj%jj%j%j%j%j%j%j%%j%j%%j%%
38064A6j%%j%%%j%%j%%%%j%%%j%%%%j%%%%j%%%%%j%%%%%%j%%%%%%j%%%%%%%j%%%%%%%%j%%%%%%
37994C%%j%%%%%%%%j%%%%%%%j%%%%%%%%j%%%%%%%%%%Jj%%j%%J%%%%%%%J%J%%J%%j%%jj%j%J%%%
37923aJ%%J%Jj%%j%j%%%J%JJ%%J%%J%%%j%jjjj%%JJJ%%%jjj%%J%%%%%%%%j%%%%j%j%%%J%J%JJ%
37851AJ%%%%j%j%%%%%%%%j%%%j%j%j%%%J%%%J%%%%%j%%%%%%J%JJ%J%%%%%%jj%%%%%%j%%%J%%J%
37780@%j%%%%%%%%%%%%%j%J%%%%%%j%%j%%%%%%%%J%%J%%%J%%%%jj%%jJ%%J%%%%%J%J%j%%%%j%%
37709aj%%%J%%%J%%%%%J%j%%%j%%%J%%%%%%%J%%%j%j%%%J%%J%j%j%%jj%j%%%J%%J%%%%%J%%%J%
37637@%j%%%%%J%%J%j%%J%%J%%%j%%j%J%%%%%j%%j%jj%%%J%J%%%j%%%J%%J%%%%%%%%%%%%j%j%%
37566b%%%%%%J%%J%%%JJ%J%%%%j%j%J%%J%%%%%%%j%j%%J%%%%j%j%%%%%%%%J%J%J%J%%jjj%j%j%
37495a%J%%%J%j%%j%%%J%%J%J%%%%j%j%%%j%%%%%J%JJJJ%J%j%%j%j%j%%%%j%%j%%J%J%%%%%%%%
37424A%%%%%%%j%j%%%%J%Jj%%j%j%j%j%%%j%%J%%J%JJ%J%%J%%%%%%%%%%%j%j%%%%J%%J%%%J%j%
37352Aj%%%%%%%J%%J%%%%%J%J%j%jjj%%%%%j%%j%J%JJ%%%jjj%j%%%J%%%%%%J%J%J%%j%%%%%%%j
37281a%%j%j%%%J%JJJ%J%%%%j%jj%%j%J%%%%%%J%J%%%j%j%j%%J%JJ%J%j%j%%%J%%%%%%%j%%J%%
37210A%%%%%%%j%%jj%j%j%%J%%J%J%%%%%%J%JJ%%J%j%j%j%j%%%%JJ%%%%j%%%%%%%j%j%%%J%%J%
37138@j%%j%%JJ%%%%%%J%J%%jjj%%%%JJJ%J%j%j%j%%%%%JJ%J%J%%%J%%J%JJJJ%JKKKLLMLLKK%k
37067C5klllllllkkjjjj%%%J%%%j%j%%%J%%%jjjj%%%%%%j%j%%%%j%%%%JJJJJJJ%%%%%%%%%%jj%
36997Bj%%%%J%%%%%j%%%%%JJ%%Jj%jj%j%%%%%%j%%j%j%J%JJ%J%%%%%j%j%j%%%J%JJ%J%%%%%%%j
36925A%j%%%J%J%j%j%%%%J%J%%J%%j%jjj%j%%%%J%J%%J%%Jj%%%%%j%%%J%%%%%jjj%jJ%JJ%JJJ%
36854C%%%j%%%%%%jjj%%%%%J%JJ%%jj%jj%%J%JJ%%%%j%%%%J%%%j%j%%J%J%%%%j%%j%J%%%%%%j%
36783aj%%%J%J%%%%%%%%J%%%j%jj%%%%j%jJ%%J%J%%J%%%%%%%%j%%%%%%J%%%%%jj%j%%JJ%%J%%%
36711@j%%%%J%%%%%j%JJJJJ%%j%j%%j%%%%%%%%jj%%%%JJ%J%J%jj%jj%%%%%%%j%%%%JJJJ%%%%jj
36640@j%%%J%J%j%%%%%J%%%%jj%%j%J%JJJ%%%j%j%%j%%%%j%%%%%%J%J%%J%J%j%j%%%JJ%J%%%%%
36569Cj%jjj%j%%%J%%J%%%%%J%%%%%j%%%JJJ%j%jjj%j%j%%J%J%J%%%j%J%%%J%%J%%%%%%%j%%%J
36498B%%%%j%%%%%j%%%%%%JJ%%j%j%%%%J%j%jj%%%J%J%%J%j%%%j%%%j%%%%J%J%%J%j%%%J%%%%%
36426A%%j%%%%%%%%j%%j%%%%%J%%%%j%jj%%%J%JJJJ%%%j%j%%%J%%J%j%%%j%%%%J%%%%%%j%%%%J
36355@%J%J%%%%%%%J%j%%%j%%%%%%%J%%%jj%jj%%%%%J%%J%%J%%J%%%%%%%%%j%j%j%J%J%J%%j%j
36284@j%%%%%%J%J%%%%%%%%J%%%jj%jj%%%%JJ%%%j%%j%%JJ%J%j%jj%%%%%J%%%J%J%J%%%j%%%%%
36212A%%%J%j%%%%%%JJ%%%%%%j%%%j%%%j%%%%%%j%%%%%%%J%%J%JJ%%%%%j%%%%%j%%j%%%j%%%%%
36141aJ%%j%%%j%%%JJJ%%%%%%%%%%%j%%%%%%%%J%%%%%%%%J%%%%%j%kjjj%%%J%J%J%%%%%%%%J%J
36070A%%J%%%%%J%%%j%%j%%%%%%%%%%%%%%%%%%j%%j%%j%%%%%J%%%%J%%J%J%%%%%%%%j%%j%%%%%
35998@j%J%%%J%%%%jjj%j%%%J%%J%J%%Jj%%%%%%%%%j%%J%JJ%%%j%%jJ%%%%%j%%%%J%%J%%J%%jj
35927A%j%j%%%%%%%J%J%J%%j%%%%j%%%j%%%%%%JJJ%J%%%%j%%%%jJ%%J%j%%j%%%%%%%%%%J%j%%%
35856A%JJ%%j%jj%%%J%%%j%%j%j%%j%%%J%J%%%j%j%%%J%%J%J%J%%J%%j%jjj%j%%%J%%J%%J%%J%
35785A%%%%%%j%%J%%%j%%%%%j%J%J%%%j%%%%%j%%%j%%%%%%%%%%J%J%%J%%%%%%jj%%%%%J%J%%%%
35713Aj%%%%j%%%%%%%J%J%%%%%j%%%%j%j%%%J%%%%%%%%%%%%%%%%%%%%Jj%%%%%%%%J%J%J%%j%jj
35642ajj%%%J%J%J%J%J%%%%%%j%jj%%%%J%j%%%%J%J%%%%jj%%%%JJJ%J%%j%jjj%%%J%%%%%%%%J%
35571AJ%%%%j%j%%%%J%%j%%%%j%%%J%%%%j%%%J%%%%J%%%%%j%%%%%%%%%J%%%j%%%%%J%%%%%j%%%
35499@%J%%%%j%%%%%%%J%%j%%%%%%J%%%j%jj%J%%J%j%%j%%J%J%Jj%%j%%%%%J%%J%%%%%J%J%%%%
35428C%j%j%j%j%%%%%J%%%%%j%jjJ%JJJ%%jj%j%jJ%%%%%%%%%J%J%%%j%j%%%J%%%j%%%%J%J%%J%
35357A%%j%%%%%%%%%%%%J%%%%%%%j%J%%%J%%%%%%%j%%J%%%%%%j%%jJ%J%%jjjj%%%J%KJ%Jj%jjj
35285a%%j%J%%%%j%%%%%%J%JJ%%%%%j%%%j%j%%%JJ%JJ%%%%%j%%%%%J%%J%j%%j%%%%%%%%j%j%%%
35214a%%%%j%J%%%%%J%J%J%%j%j%%%%JJJ%%j%kjj%%%%%%%%%%J%J%j%jjj%%%%J%%%%%J%J%%%%%%
35143a%J%J%%j%j%%J%J%%J%%Jj%jjj%%%%%j%%J%JJ%%%%j%j%%%J%%Jj%%%j%%%J%%%j%%%%J%J%%j
35072@%j%%%%J%%J%%j%%%%J%JJ%%%jj%jj%%%%J%J%%%jj%j%%JJ%J%J%%%j%%j%%j%%%%%%%%%J%JJ
35000B%%%%j%j%%%%%%j%%%%%j%J%%%%j%%%%%j%J%%JJ%J%J%%%j%%j%%%%%%j%%%j%%%JJJ%%%jj%j
34929bJ%JJJ%J%%j%jjjj%j%%%J%%%%%%%%%%JJ%%%j%%%%%%J%%%Jj%%%%%%%J%J%%%%%%%%%%j%j%%
34858@%%%%%%%%%%%%%%%J%J%jjjjj%%JJJ%J%j%%%%%%%%JJ%JJ%%%j%jj%j%%%%%%%%J%%%%%%j%j%
34786a%%%J%J%%Jj%%%%%j%jj%j%%%%%J%J%%%%%j%%%%%%%%%%%%j%j%%%%%%JJJJJK%%%kjjj%j%%J
34715bJJJ%%%jj%%%%J%J%j%j%%J%%%%%%J%%Jj%%jj%%%%%%J%%J%%J%J%%%%j%jj%j%j%%%%%%%J%%
34644aJ%%%%%J%jjj%j%J%%%J%%J%J%%%j%j%%%J%J%%%%%%j%%%J%J%%J%j%%j%%%%%%%%%%%J%%j%%
34572A%%%%j%%j%%%JJ%J%jjjjj%%JJ%J%j%jj%%JJJ%J%%%j%%jJ%J%J%%%%%%%%%%j%j%%%%J%%%%j
34501@%j%%%%%%%%J%J%%%%%j%%%%%%%%%J%%%%jJ%%j%j%jJ%JJJ%%%j%j%%%%JJ%Jj%%j%%%J%%J%J
34430Dj%j%j%jj%j%%J%J%J%%%j%%%%%%%%%%%j%j%%%%%%%%%%J%%J%%%%j%%j%J%J%J%%%%%jj%%%%
34358aJJ%%%%j%j%%%JJ%J%j%jj%j%J%%%%j%%%%J%J%%%j%%%J%%J%%j%%%j%%jj%jJ%%J%%J%%%%j%
34287bj%%%%J%Jj%%j%%%%J%J%J%%%J%%%j%%j%%JJ%J%%%%%%j%j%jj%%%J%J%%%%%J%%%%%%J%%j%j
34216@%%%%J%%%%j%%%%%%%%%%J%%%%%%%j%%%%%%j%%j%JJ%J%%%j%%%%%j%j%jj%%JJJ%%%%j%j%J%
34145bJ%J%J%%%j%%JJ%J%%%%j%%j%%J%%%%%%%%j%j%%%%%%%%%%%J%%%%%j%%%%J%J%%%jj%%%%%%%
34073@j%j%%J%J%JJ%%%jj%j%%%%%%%%J%J%%%%%j%%jJ%%%%%%%%j%%%%J%J%%%%%j%%%%%%%%j%%%%
34002aJJJJ%%%j%j%j%jJ%%%%%%j%%%%%%%%J%%J%J%j%j%j%%%%%%%j%j%%%%%%%%JJJ%J%%%%%j%j%
33931aj%%J%J%%%%%%%%J%J%%%%%j%%j%%%%%jj%j%J%J%J%J%%%%j%jj%j%%J%%%%j%%%%%J%%%%J%%
33859aJ%J%%JJ%%j%jjj%%%%J%J%j%j%j%J%J%%%%j%j%%%%J%%%%%%%%j%%%J%%J%%%%%%%J%%%%%j%
33788@j%%J%JJJ%%jjj%jjk%j%%%JJ%JJJ%JJJ%%%jjj%j%%J%%%%j%j%%%%%%%J%%%J%J%J%%%%%jjj
33717a%%%%J%%J%%%%j%j%%%%J%%%%%j%%%JJJJ%%%jjjj%%%%%%%j%%%%J%%J%%J%j%j%%%%J%J%%%%
33645A%%%%j%j%j%%%%JJJJ%%%jjjj%j%JJKJJ%%j%j%%%%J%%%%j%%%%%%%%%%%%%%%%%%%%j%j%%%J
33574@%JJ%%J%%j%j%j%%%%J%%%%jj%j%%%J%J%%%j%%j%%jJ%%JJJKJJ%j%j%jj%j%%J%%j%%j%j%%%
33503b%%J%%%%j%%%%%%%%%%%%J%%%%%jj%%%J%J%%%%%%%j%%J%JJ%J%%%%%j%j%%%%%%%J%j%j%j%%
33432bJJ%J%j%jj%%J%%%JJJJ%%%jj%%%%%%j%j%j%%%%J%J%%%%%%J%J%j%jj%j%%%%%%%%%%%J%%%%
33360a%%%%%j%%%%J%%%%j%j%%%%J%%JJ%%%J%%%%%j%%J%%%%jj%j%%%JJ%J%J%%j%j%%j%%%%%%%%J
33289@%J%J%j%j%%%%%%%%%%%%%%%%%%%j%j%%%%J%J%%%%j%J%JJJ%%jjj%j%j%%%%%%%J%J%%J%%j%
33218@%%%%J%%%%%%j%%%%j%j%%%%J%%%%%j%J%JJJ%J%J%%%%%%j%jjjj%%J%J%%%%%%%j%j%%%%J%%
33146@%%%%%%%%%%%J%%J%%j%%j%%%j%%%%%%%%J%%%%%%%j%j%%J%JJ%%%%j%%%%%%%%J%%%j%%%%J%
33075A%J%J%%%%%j%%%%%j%j%%%%%%J%J%%%j%%%j%%%%%%%%j%j%%%J%J%j%%%jJ%%%J%%%j%%%%J%%
33004@%jjjj%%%J%JJ%J%%Jj%%j%j%%%J%J%j%%j%j%%%%J%J%J%%%%j%j%j%%%%%J%J%J%%J%%J%%j%
32932A%%%%%J%J%%jjjj%%%%J%%j%j%J%JJ%J%%%jj%jj%%j%J%%J%%%%J%%j%%%%J%%%%%%%J%JJ%%%
32861C%%j%jj%%j%%%J%J%JJ%%%%jjj%j%j%%%%%J%J%%J%%%j%%%%J%%%%j%%%%%%J%J%J%%%%jjj%%
32790@j%%%%%%%%%%%%J%%J%%J%J%%j%%j%J%%%%j%j%j%%%j%J%J%%%%j%%j%%%%JJJ%%%j%%%%%%%%
32718@%%%%J%%Jj%j%%j%J%%J%%J%%%%j%%j%%j%%%%J%%j%%%%J%%%%%%%J%%%%%%%%%%%Jj%%j%J%J
32647B%Jj%%j%jj%j%%%%J%%%%%%%j%jk%jJ%JKJJ%J%j%%j%%%J%%%J%%%%%j%%%%%j%%%%%%%%%%J%
32576@%%%j%%%%J%%J%%j%%%j%%J%%%%%J%J%%J%j%j%jjj%%%JJ%J%%J%%jj%j%%J%%%%%%%%%%j%j%
32505bJ%%J%J%%%%%j%j%J%J%J%%%jj%%%J%J%J%%jjjj%j%%J%J%%%jj%%%%J%%%%%%%%%J%J%%j%jj
32433bj%%%JJJJ%%j%j%%%J%%J%%j%j%%%%%%%%%%%J%J%%%%%%%j%%J%%%%%%%j%%%%JJJ%%%%%j%%%
32362B%%%jj%j%%%%%%%%%J%J%%%%j%%j%%%J%%%J%%%%%j%%j%%J%J%%%%%%%jJ%%%%%jj%%%%%%%%%
32291a%%%%%JJJ%%j%jjjjj%%J%JJ%J%%j%J%%%%%%%%%j%%%%%j%%%%%J%J%%J%%j%%%%%%%%%%%%%%
32219@%jj%j%%J%JJ%%%%%%%%%%%%%%%%j%%j%%%%JJ%J%J%%%%%%%%%%%%%j%%j%j%%%%%%j%j%%JJJ
32148@JJJJ%%j%j%%j%%%%%%%%%jj%%%J%JJ%j%j%j%%%%%%%%%%%J%J%%%j%%%%%%J%%j%j%%%%%%%%
32077a%%%j%%J%%J%J%J%%%%%%%%%J%%%jjj%j%%%%J%%j%%j%%J%%J%%j%j%%%%%%J%%JJJ%%%j%j%%
32005@%%j%j%jj%%%%%%%%J%%J%%%J%%JJ%%%jjjjjJ%JJJJJ%%%%%%jj%jj%%J%JJJ%%%%%j%j%%%j%
31934a%%%%%%J%%%%%%Jj%%J%%%%%jj%j%%%%J%J%%%%%%%J%%%j%%%J%J%%%%j%j%j%%%J%J%%%%%%%
31863A%j%j%%%%%%%%j%jj%J%J%J%J%%j%%%%J%J%%j%%%%%%J%J%%%%%%j%%j%%%%%%%%J%J%%%%jj%
31792@j%%%%%%j%%%%%%J%%%%%J%%%%J%%%%%%%%j%%j%%J%%J%%%%%%%%j%j%%%%%%%%%%%%%J%JJJ%
31720Cj%jj%j%%%%J%%J%JJ%%%j%j%%%J%%%j%jj%j%%%%%%%%%%JJ%J%%%j%%j%%%J%J%J%j%j%j%j%
31649b%%J%JJ%%J%j%j%%%J%J%%%%j%%j%%jJ%%%J%%%%%%j%j%j%%%%J%J%%Jj%%j%%%%JJJ%%j%jjj
31578b%J%J%%%%%j%%jJ%JJ%J%%%%jj%j%%j%%%%%%%%%%%J%%%%%%%%%%%%J%%%j%%%JJJJJj%jjjjj
31506bjj%J%J%%%%%%J%J%J%j%%%%J%%j%j%j%%%JJ%%%%%%J%%%%%%%j%j%%%%%%%%j%%%%%%JJ%J%J
31435Bj%j%j%%%%%%%%%j%j%J%JJJJJ%%j%%%%%J%%j%%j%J%j%%j%j%%%j%j%%%J%%J%%%JJJJ%%%j%
31364B%%%%%%%%j%j%j%%%%%j%%j%%%%J%%%%%%J%J%%j%j%%%%JJJJJ%%j%j%%%J%j%%J%%%%%%%%%%
31292BJ%j%%%%%%%j%%%%%j%j%%%%%J%%%j%%j%%j%J%J%JJ%J%Jj%jjjjj%J%JJJ%J%%%%j%j%j%%J%
31221@%J%%%%%%J%%%%j%%%%%J%%%%%%jj%%%%%J%%%%%%%%%%%j%j%%%%JJ%j%jj%%%%J%j%%j%%%J%
31150b%J%%%%%%%%J%J%j%j%%%J%JJ%%%%%%jj%j%%%%%%%%%%%%%%%j%%%%J%JJJ%%%%jj%%%J%%J%%
31078B%%j%J%JJ%%%%jjjjjj%%%%J%J%%%J%%%%%%%%%%%%%%%j%%%%J%%%j%%%j%J%JJJ%%jj%jj%j%
31007bJJ%JJJ%%%%%%j%j%j%%%%j%%%JJ%J%jjkjj%%%%%J%J%%J%%%%J%J%J%%%jj%j%j%J%JJ%JJ%%
30936C%%jjj%%%%J%%%jjjj%%%%JJ%J%J%%j%j%%%j%%J%%J%%%%J%j%%%%%%J%%%%%%j%j%jJ%J%JJ%
30865B%%%jj%jj%j%%J%%J%%%%%%%%%%%%%%%%J%%%j%%%j%%%J%JJJ%%j%j%j%%J%%J%%%%%%j%%%%%
30793@%j%%%jJ%%%%%%%%J%J%Jj%j%jj%%%%%%%%%J%J%J%%%J%%J%%j%j%j%%j%%%jJ%%j%%%%J%J%%
30722@%%%%%%%J%%%%%%%%j%%j%%j%J%%%%%j%j%%JJJJJ%%%%j%j%%%%%%%J%%%j%%%Jj%%%j%J%J%J
30651B%j%%j%%%J%%%%%%%%j%%%J%%%%%%%%%%%J%%%JJJ%j%jjjj%j%%j%%j%%%J%JJJ%J%%%%%%%%%
30579B%%j%j%j%%%%%J%%%J%%JJJ%%%%j%jj%j%j%%%j%%%%%%%J%%%%%%%%%%JJJ%Jj%jj%j%%J%%J%
30508A%%J%%j%%j%%%j%j%jj%%J%J%J%J%%%%%%%%%%%%%%J%%j%%%%J%%J%%j%%j%%%%j%%%%J%%J%%
30437AJJ%J%%j%j%j%j%%%%j%%%%%%J%J%J%J%%%%%j%j%j%%%%%J%%%J%%%j%jj%j%%J%J%%J%%%%%j
30365@%j%%%J%%J%%%%j%j%%%J%J%%%%%%%%%J%J%%%%%%j%%%%%%%%J%%%j%j%jj%j%jJ%%JJJ%J%%J
30294C%%%J%j%%j%%j%J%%j%%%%%%%%%%%j%J%%Jj%%%%%JJJj%jj%%j%J%%%%%j%%%%j%J%J%%%%jj%
30223aj%%%%%J%j%j%%%JJ%J%%%%j%j%%%J%%%%%%%J%%jj%%%%JJ%J%%j%%j%%jJ%JJJ%%%%j%j%j%j
30152b%%%%J%%J%J%%%j%j%%J%%j%j%j%J%JJJJ%J%j%j%j%%%%%JJ%JJ%%%%%j%%j%j%%%%%J%JJ%j%
30080Cj%%%%%%%j%j%%J%J%%%j%j%%%%%%J%%j%j%%%%%%J%J%J%%%%%%%%%%%J%J%%%%j%j%j%j%%%%
30009@%J%%%%%%j%%j%%j%J%J%%%j%jj%%%J%J%%J%%%JJ%%%j%j%jJ%%J%j%j%%%%J%%%%%j%%%%%%J
29938@%%jjjjj%%JJJJJ%J%%%j%%%%%J%%J%j%%j%%%J%%%%%%%%Jj%%j%j%%%%J%J%j%j%%j%J%JJJJ
29866C%%%%j%%%jj%j%J%%%%%%J%%Jj%j%j%%%J%%%%%%J%%%%j%j%%%%J%%%%%%%%%J%%j%jj%j%J%J
29795aJJJ%%%%%jj%jj%%JJJ%J%j%jj%j%J%JJ%%%jj%%%%%J%J%%%%%j%j%%%%%J%J%%%%j%%%J%J%J
29724C%j%j%j%j%j%%%j%J%JJ%J%%jjj%j%J%J%%%%%%%%J%%%%%j%%%J%JJ%%j%%%%%%%%%%%%%%j%j
29652a%%%%%%%%%J%%J%%%%%%%%%jj%j%%%J%%%%%%%%%J%%%%j%%%%J%J%%%%%j%j%%%%J%%%%%%j%%
29581a%J%JJ%%%j%%j%J%%J%%Jj%%j%%J%%J%%j%jj%j%%J%%Jj%%%%J%%%%%%%%%J%%jj%jj%%J%%%J
29510@%%j%%%%%j%J%JJ%%%%%%%j%j%%%%J%%%%%%%j%%j%%%J%%%J%JJJ%%j%j%%%%%%%J%%%%%%%%%
29438B%j%%%%%%%%jjj%j%j%%%JJ%J%%%%%%%JJ%J%%jjjjj%%%J%JJ%J%%%%%%j%%%%%%%%%%%j%%%%
29367aJJ%J%%%%j%jjjjj%%JJJJJ%J%%%jjj%j%%J%JJ%%J%%j%%%%%%%%%%J%J%%%%%j%%%j%%%%%Jj
29296A%%%j%%%%%%%%%j%j%jJ%JJJ%%%%%%%%%J%%%%%%%j%%%j%j%%J%%%%J%%%J%%j%%j%%%j%%%%%
29225a%%J%%J%%J%%%%jj%jj%%%J%%j%j%%jJ%J%J%J%%J%%%%%%j%%j%j%%%%%JJ%J%%%%J%%%j%jj%
29153a%%J%J%j%jj%%%%JJ%JJ%%%%j%j%j%%%J%j%j%j%%%J%J%J%J%%j%jj%%%J%%%%%j%%%J%j%j%%
29082c%%J%J%%J%%%%%%jj%%JJJKJ%%%jj%j%%%%%%%%%%%j%%j%%J%%J%%j%%%%%j%%%%J%%J%%%Jj%
29011A%%%%jJ%J%J%%%%%%j%j%%%j%j%j%%J%%%J%j%%%%J%JJ%%j%jjj%%%J%JJJ%%%j%%%%%%%J%%%
28939BJ%%%%%j%j%j%j%%jJ%%J%%%%%%%%%%%J%%%%j%%%%%%%%%j%J%JJ%%%%%%j%%jJ%%J%%%%j%%%
28868A%%%%%%%%jj%%%%%%%%%j%%%%%J%J%J%%%j%%j%jj%j%%%%%JJ%%J%%%%J%%%%%%%%%%%j%j%%%
28797bJJ%%%%%%J%%%%%%%%%%%jj%j%%%JJKJ%%%jjj%%%%J%%%%%j%%%%%%%J%%%%%%%j%j%%J%%%J%
28725A%J%%%j%%%%j%j%j%J%J%%%%%%%%%j%jj%%%%J%J%%%%%%%%%%%%j%%JJJJJ%%%j%j%j%%%%%%%
28654@%%%%%j%%%%%%%%%%J%JJ%%%%%%j%%j%%%%%j%%%%J%%%%%%%%%%%%%J%%%%%j%%%%%%j%J%J%J
28583B%%j%%%%j%%%%%%J%J%%%%j%j%%%%%%j%%j%JJ%J%%j%%%%J%J%%J%%j%%j%%j%%j%%j%%J%%J%
28512@%%%j%%%%J%J%%%j%j%%%%JJ%%%%%%%j%%%%%%J%J%%j%jjj%%J%%j%j%%JJJJ%Jj%j%jJ%%J%%
28440A%%jJ%%%%j%J%%%%J%%%j%%%%%J%%j%%%%%%%%%j%%j%J%%%%%%j%%%%J%%%%j%%%%%%%%%j%%%
28369b%%J%%%%%j%%%J%JJ%J%%jj%jj%%%%%JJ%%%%%J%J%%%%%%%%%jjjj%%%%%%%%%%%%J%%J%J%%%
28298A%%%j%%%JJ%%%%%jj%j%%%%%%%%%%%%%JJ%J%%j%%%%%%%%%j%%%Jj%j%j%%%J%J%%J%%j%%j%%
28226a%J%J%%%%%%%%j%%%%j%J%%J%%%j%j%%%J%J%j%%j%%J%%%%%%%%%j%%J%%Jj%%j%%%%JJ%JJ%j
28155B%%j%jj%%%J%%%%%j%j%%J%J%JJ%J%%%%jj%j%%%%%%%%J%%J%%%%J%j%j%j%%j%%%%J%%%%%%j
28084a%jj%J%%%%%%%%%JJJJ%%j%%j%%J%%%j%%%%%%j%%J%J%%%%%%%J%%%%j%j%%%%j%j%%j%%%%J%
28012b%%%%j%%J%%%J%%J%%J%%Jj%%j%%%%J%%%j%j%%%%J%j%%j%%%%%%%%JJ%%%%%%%%%%%%%%%%j%
27941ajj%%%%JJJJ%Jj%jjj%%J%%%J%%J%%%j%jj%%%%%%J%J%J%%%%%%j%%%%%%%%j%%%%JJ%JJ%%%%
27870Cjjjj%%%%J%%%%j%%%%%%%%%j%%%%%%%J%J%%%%%j%%%%%%%%J%%%%%J%%%%j%j%%J%%J%%%%%J
27798B%J%%Jj%%%jj%jj%%JJ%%J%j%j%j%%%%%%Jj%J%%J%J%%%%j%j%%j%%j%JJ%J%%j%j%%%J%%j%%
27727a%%%%%J%j%%j%J%JJ%J%j%j%%J%J%%%jjjj%%%J%J%J%%%J%%%%%%%%%%%%j%%j%j%j%%%%%%%%
27656b%%%%%J%%%%JJ%%%%%jj%%%%%J%%J%%%%j%%%%%J%J%%Jj%%jj%j%%%%JJ%%%%j%%%%%J%JJ%%%
27585Cjj%jj%jj%%%%J%J%%%%%%%%J%%%J%%%%j%j%j%%J%j%%%%%J%%j%%%%JJ%J%J%%%%%%%%%J%%%
27513C%jj%j%JJ%JJ%%jjjj%%%%%%%jj%%%%%JJ%J%%%%%%%%%%%%%%%%%%j%j%%%%J%%%%%%%jj%j%J
27442b%JJ%%Jj%%jjjjjJ%K%J%%%%%%J%%J%%%jjj%%%%JJ%J%J%J%%%j%%j%j%j%%%%J%%%%%j%%%J%
27371@%j%%%%%J%%%%%%%j%%%j%%%J%JJJJ%J%j%j%%J%J%%%%%%%%jj%jj%%j%%%%%%%%%%%%%%%%%%
27299aJ%%%J%%%%%%%j%%j%%%%J%%J%%j%jj%%%%J%J%%%%%%%%%%J%%j%%j%%J%%J%%j%j%%%%J%%%%
27228@%%%%J%%%j%%%%%J%%J%%j%j%%%%%%%%%%%jj%%%%%%J%J%J%%%%%%%%%%%%%%j%%%J%%J%%%j%
27157A%%%%%%%%j%%%%%%%%j%%%%%j%%%%%%%j%%j%%%%J%J%JJ%J%%J%%%j%%%%%jJ%%%%%%%%%%%%%
27085A%%%J%%%%j%j%j%%%%%J%%%%%%%j%j%%%J%J%J%%%%%%%%%%%%%%%%J%%jjkj%%%J%%%%%%%J%%
27014aJ%%%%j%j%%JJJJ%%j%j%j%J%%%%%%J%%%%j%j%%%%%J%%%j%%%j%%j%%j%%J%J%%%%%%%j%j%%
26943d%JJKJJ%%%%%%%%%jj%j%j%%J%J%J%%%%jJ%%J%j%jj%%J%Jj%jjj%J%J%%%%%%%JJ%%%j%j%j%
26872bj%%%%J%%J%j%jj%%J%JJJ%J%%j%%j%%%J%J%%%%j%jj%j%J%JJJ%J%%J%%j%jj%j%%J%J%J%%%
26800B%jj%jj%j%%%JJ%J%%%%%j%J%J%%%%%%%%%J%%j%%jJ%%%%J%%%jj%j%j%j%j%J%J%%%J%%%%J%
26729@%%%%%J%%%%j%%%%%%J%%J%%%%%jjjjjj%%JJJJJJ%jjj%jJ%J%%%%%J%%j%j%%%%%J%%%%%J%%
26658A%J%%j%%%%j%%%%J%J%%%jjj%j%%%J%%%J%%%%%%J%%%%%%%%%J%Jj%j%jj%%%%%%%%%%%%%%%%
26586a%j%%J%%%%%j%J%%%%%%%%%%%%J%J%J%j%j%j%%%%Jj%%jj%%%J%JJ%J%J%%%%j%%%%%%%%jjjj
26515c%%J%%J%%%j%%J%JJ%%%%%%%%%%jjj%jj%%%%J%J%%%%J%%J%%%%%%%%J%%%%%j%%%%J%%%%%j%
26444@%j%jj%%%J%%%%%%%JJJ%J%%%j%j%%%%%%j%%%%%j%%J%J%J%%j%%j%%%%%%%%%%%%%%%%%J%%J
26372A%J%%%%%%%j%%j%j%%j%%%%%J%JJJ%%%j%jj%j%%%%%%%%%J%%J%%J%%%%jjjj%%J%J%%j%j%%%
26301cJJ%JJJ%%jj%%%%%j%jj%%%%%j%%J%%%jkkkj%JKMNLK%%jj%j%%%j%j%%%J%%%j%jjj%jJ%J%J
26230@%%%%%%%%j%%%J%J%J%%%%%J%j%%j%%%%%%%%%%%%%%%%%%%%%%%%%%j%j%%%j%%%%J%J%J%J%%
26158B%%%j%%%j%%%%j%J%%%%%%%j%jJ%J%J%%%%%j%%%%%J%%%%%%J%%%%j%%j%%%%%J%%%%%j%jJ%J
26087AJ%J%j%j%%%%%JJ%%%%%%j%%j%j%j%%%%J%JJJ%%j%%jjjjj%j%%%%%J%JJ%Jj%%%%J%%J%%%j%
26016@j%j%%%J%%Jj%j%%%%J%%%%j%%J%J%%%%%j%%J%%%%%%%%%%%%%%j%%%%%%J%JJ%%%j%j%jJ%%%
25945@J%%j%j%%%J%%J%%jj%j%%J%J%%%jjj%%jJ%JJJ%JJ%%%%%j%j%%%%%%%%%%%J%JJ%J%j%%%%j%
25873Bj%j%%%%%%%j%j%%J%JJJ%%%%%%%%jj%%%%%J%j%%%j%%%J%J%%%%j%j%%jJ%JJJ%Jj%jjjj%%%
25802bJ%J%%j%%%%%J%%Jj%%%%J%%%%j%%%%%%%%J%JJ%JJ%J%%%%jjj%j%%%j%jj%jJ%JJ%%%%%%J%J
25731C%j%j%jJ%J%%Jj%jjj%j%%%J%J%j%%%J%JJ%%%%j%jkj%%%JJK%JJj%%j%%%%%%%%%j%%j%%j%J
25659a%%J%JJ%%J%%%%j%j%%%%%J%%j%j%jj%%%%%J%%%j%%%JJ%J%j%%j%J%%Jj%%jjj%jJ%JJJJ%%%
25588A%j%%%%%%%j%j%j%JJ%J%%%%%J%%J%%%j%j%j%J%J%Jj%%%%%%%j%jj%%%J%J%J%J%%j%jjj%%J
25517a%%%J%%%J%J%%%%jjjj%j%%%%%J%J%%%J%J%J%%%%%j%%j%j%j%j%%%%JJ%J%%%%%%%j%%j%j%J
25445b%J%%%%%%%JJ%J%%%j%%%%%%%%%%%%j%%%%%J%J%%%j%%j%%%%%J%%%%%%J%%%%%%j%JJ%J%j%j
25374B%j%jJ%%%%%jjjjj%%%J%J%JJ%J%J%%J%%%%%j%%%j%j%%%%J%%%Jj%%%J%%%j%j%j%j%J%JJ%%
25303A%%%%j%%j%%%%%J%J%%j%%%%%j%%J%%%%%%j%jJ%%JJ%%%%%j%%j%%J%%%%%%%%%J%%%J%%%j%j
25232@%j%%JJ%J%%jjj%%J%JJJ%%%jjj%j%%J%%%J%%J%%%j%%%%%%%%j%%%%J%%%j%%%%%%j%%j%%%%
25160b%%%J%J%%%%%%%%%Jj%%%j%%j%%%%%%J%%j%%%%%%%j%j%J%KJJJ%%%j%j%%%J%%%%j%jj%%%%J
25089a%%%%%%%%%%%J%%%J%%%%%j%%%%%JJ%%%%j%j%j%%%%J%%J%J%%%%%%%%%%%%%%jj%j%jJ%%J%%
25018@%%%%%%%%%%%%%J%%%%j%%%j%%%JJ%%%%%j%%j%%%%%%%%%%%%%%%%%%%%%j%%%%%J%%%%%%%%%
24946a%%jJ%JJJJ%%%%j%j%%%J%%%j%%%%%j%%j%%%J%%%%%j%%%%%%J%JJ%%%%J%%j%%j%j%%%%J%j%
24875@j%%jJ%%%%%J%JJ%%%%j%jj%%%%%%J%%%%%%%%J%%%%%j%%%%J%%%%%j%%j%%%%%%J%%J%%j%%J
24804A%%%j%%%%%%j%%%%%%J%%J%%%j%jj%%%%J%%j%%J%%J%%%%%%%%%%j%%%J%%J%%%%%%%%%%%%%%
24732A%%%%%%j%jj%%%J%J%J%%%j%jj%%J%J%%%j%j%%%J%JJ%J%%%%%%%%%j%%%%%%%%%%%%%%J%%J%
24661C%J%%%%j%j%jj%jj%%J%%%j%%%%%%j%j%j%J%KJJJ%%%jj%%j%J%%%%%%%j%%%%J%%J%%%j%%%%
24590aJ%JJ%J%%%Jj%%j%%%%%j%%%%%%%J%j%%j%%%%%%J%%%%%%j%%jj%%%J%J%%%%jjj%j%J%%J%%J
24518a%%%%JJ%%%%%J%%%j%%%j%%%%%J%%%%%%%%%%%%%%j%%%%J%J%%%%j%jj%%jJ%JJJJ%%%jjjj%%
24447a%%%%%%%%%%j%%%%J%%%J%%%J%j%%j%%%%%J%%%%%%J%J%%%%%%j%%jj%%j%%%%%%JJJJJ%%%%%
24376Cj%j%%j%%j%%%%%%J%J%%%%j%%%%%J%J%J%%%%%j%j%j%%%%J%J%%%j%%%%j%j%%%%%%%j%%%%%
24305b%%%%%J%JJ%%%%%%j%j%%%J%%%j%j%%%%%J%%J%J%J%%jj%j%%%%%%%%%%j%j%%%J%%%J%JJJJ%
24233C%%jjjjjj%%%J%Jj%j%%%%%%J%J%j%%%%%%J%%%%%JJ%J%%%%%j%jjj%%%J%%%%%%%%%%%%%J%%
24162@%%%%j%j%J%%%%J%%%j%%%%J%J%%%%%%%%j%%J%%%%%j%j%j%j%J%JJJJJJ%%jj%jj%j%%jJ%JJ
24091A%J%%j%%jj%%%%%J%J%%%%%%%%%j%%%%%j%%%%%%%%%%%J%%%J%%J%%%%%j%jj%%%JJ%%%%j%%%
24019@%J%%%%%%%%%%%J%%%j%jj%%J%%J%%%j%jjj%%%%%JJ%J%J%%J%%%%%%j%%%%%%%%J%J%%%%j%%
23948B%%%%j%%J%%%%j%%jjj%J%J%%j%%%%%%J%%%%%%J%j%jj%%%%J%J%%Jj%jj%%JJJJ%J%%j%%%%%
23877Bj%j%%j%j%%JJ%J%%%j%%%%%%%%j%j%%JJ%J%%%%%%%%%%%%%%j%jj%j%JJJJJ%%%j%j%%J%J%%
23805Bj%%%%%J%%%%%%jj%%%%%%%J%Jj%j%j%%J%%J%%%%%%j%%%%%%%%j%j%%%%%%%J%%%%%jJ%%%J%
23734@%J%J%%%%jj%j%%%%J%J%%%j%j%%%%%JJJ%%%%jjjj%%j%%%J%%J%J%%%%%%%J%J%J%%%j%%j%%
23663A%%%%j%%%j%%j%%%%JJ%J%%%%%%%%%%%%%%%%%j%%j%J%%%%%j%j%%%J%JJ%%%j%%%%jJ%%%J%%
23592A%J%%%%j%j%%%%%%%%%%%%%j%j%%%J%%J%j%%j%j%%J%JJ%%%j%%J%%%%%%%j%J%%J%%%%j%j%%
23520a%%%J%%%%j%%j%J%J%J%%%%%j%%%j%j%%j%%%J%%%%%J%%%%j%j%%JJ%K%J%J%%j%%j%j%%%%j%
23449aj%%%%%J%J%%J%j%%j%%%J%%%J%%%%%j%jjj%%JJJ%%%%%%%%%%%%%j%%j%%%%J%J%%%j%jj%%J
23378b%JJJJ%%%%j%j%j%%%%%%%%%J%J%J%J%%j%%jj%j%%%%%%J%JJ%%%%jjjj%%%%J%%%j%%%j%%j%
23306dJ%JJJ%J%%%%%%j%j%%J%J%%J%JJJ%%j%jj%%%%J%%%%%jjjj%%%j%%%%%%%J%JJJ%%%j%j%%%%
23235@%j%%%JJ%%%%%j%%%%%%%%%JJJ%%j%j%j%j%%%%%%%%%%%J%J%%%%%j%%%%%J%J%%%%%%j%j%J%
23164AJ%J%%%%%%%Jj%jjj%j%%%%J%J%%%%j%jj%%JJJJJ%%jjj%%%%%%j%j%%JJJJJ%%jj%j%%%J%JJ
23092C%%j%j%%%%%%%j%%%%%%J%J%j%%%%%%%%j%j%j%%%J%J%%%%j%%J%J%J%%%%%%%%%j%%j%j%%%J
23021@%%%%%J%%%j%%jJ%J%%%%j%%j%j%%J%%%%%%%J%%%J%%%j%jjj%J%J%J%%j%%%j%%J%J%%%%%%%
22950@%%%%%%J%%%%%%%j%%%%%%%J%%%j%j%%%J%%%%%j%%jJ%%%%%j%%%j%%%%JJ%JJJ%Jj%j%%jJ%J
22879BJJ%%%j%j%j%jj%%%J%J%%%J%%%%%%%%%%%j%%j%%%%%%%Jj%%j%%%%%%%%%%J%%%%%%J%J%Jj%
22807Bjj%%%%%%%%%%%J%%J%%%%j%jj%%%%%%%%j%%J%J%JJ%%%j%%j%%%%%j%%%%%J%%%%j%j%%%%J%
22736aJ%%%%%j%j%%%%J%%J%%%%j%%%%%%%%%%%J%%%J%%j%%j%%j%%%J%%%J%%%%j%J%%J%%%j%%j%%
22665a%J%J%JJ%%%%jj%%j%%j%%%J%%%%%%%%%%J%%jj%j%J%J%%%j%%%J%JJ%JJ%j%j%j%j%%%%J%%%
22593A%j%j%J%%%j%j%J%%%%jj%%%%J%%JJ%%%%J%%%%%%j%%%%%%j%%%J%j%%%%%J%%%%%%%%%J%J%%
22522B%%%%J%J%%%%j%jjkj%%J%JJ%%%%%%%%j%%j%J%%%%J%%%%%%%%%j%j%j%%%%J%%%%%J%%%%%jJ
22451@%J%J%%%%j%%j%jj%J%%%Jj%%j%%J%J%J%j%%j%%JJ%J%%J%%%%%j%j%j%j%%jJ%%%%J%J%Jj%j
22379@%%%%%JJ%J%%%jj%jj%j%%J%%%%%%%%%J%J%%%%%%%%%%%j%%%%%%j%j%%J%J%%%%%%%%J%j%j%
22308aj%J%J%J%%j%%%%j%%jJ%J%J%%j%%%%%%%%%%%%%%%%%%j%J%%%j%%%%%%%%%J%%J%%%%%j%j%%
22237aJ%J%%%%%%j%%%J%%%%%j%%%%J%j%%%%%%%%j%%%%%J%%%%%%%%%J%%j%%%%%%J%%j%j%%J%%%%
22165@%%J%Jj%%j%%%J%JJ%%%%j%j%j%%%%%%%J%j%j%j%%J%J%%J%J%%J%%%jjj%j%%%%%J%%%J%J%%
22094B%j%%j%j%%J%%%%%%%%%%JJ%%%jj%jj%%J%JJ%J%%Jj%jjjj%%%%%%%%%%%%%J%%%%J%J%%%%j%
22023@%%%J%%Jj%%j%%j%%%%%%J%J%J%%%%j%%%%%%%%%j%j%%%%%J%%j%%j%J%%%%j%J%%%%%%J%J%%
21952A%Jj%j%jj%j%%%%%J%J%J%%j%%%%%%%J%J%J%%%j%jj%j%%%%%%%J%%%%J%J%%%%%%j%%%%%%J%
21880A%%%j%%%J%%%%jjj%%JJ%J%%%%%%%%%%%jjj%j%j%%J%JJ%J%j%%%j%%%%%%J%J%JJJ%J%%%%j%
21809Cj%j%j%%j%%J%%%%J%%%%%%%%%%%%j%%%J%%Jj%j%j%%J%%%%%%%%j%%jj%%%%J%J%%%j%%%%%%
21738b%%%%%%%%J%JJ%J%%%%j%j%%%%%%%%J%J%Jj%%j%%%%%%j%%J%%%%%%%%%%%%%j%%j%j%%j%%J%
21666bJ%%%%%j%%%%J%%%j%j%JJ%%Jj%%%%%%%%%%%J%%%%j%%j%%%%%J%JJ%%%%%%%%j%j%%%%JJJ%%
21595B%%jj%j%j%%%%J%J%%J%%%%J%%%%J%%%j%j%j%%j%J%%%%%j%j%%%%J%%%%J%%%%%%%j%%j%J%%
21524a%J%%J%%J%%%j%%%%%%%j%%%%%%j%%j%%%jJ%%%JJ%J%%j%j%%%%J%%%j%%%%%J%J%%j%%%%J%%
21452Aj%%J%j%%j%%%J%J%%%%%%%%j%j%%%%%%%%%%j%%%%%J%JJ%J%J%%J%%%%J%J%Jj%jjjj%%jJ%%
21381B%%%%J%%JJ%J%%%%%%%%%J%J%j%jj%%j%%%%%%J%JJJ%JJJJKLMMMLLJkknmnmlkkj%JJJ%J%%%
21310A0J%JJJ%%J%JJJ%%%j%%%JJ%%J%%%%%%%JJJKKLLLMNNOPONM%koqrrqonmkkj%j%jjj%j%%J%%
21239A2%%%%%%J%J%J%%j%%JJKKJKJ%J%JKKKLMMOOOQQQONKjmpqrqqponmllklkkjkjjkjjjkj%j%%
21169B%j%J%JJJKJJ%%%j%JJKKKKLLLLMNMNNNMMKJ%klmmmmmnmmmmllkkkjkjjkjjj%j%j%%j%%%%J
21098a%%%%%%%%%J%JJJKJJJJKKKJKJJJ%JJJJJ%jkklkkkjkjjj%j%j%j%j%%%j%%j%%%%%%j%%%j%%
21027b%%%%%%%J%%JJJK%J%%%%j%j%%%%%%J%J%%%j%j%j%j%jj%j%j%%J%J%J%%%%%j%%%%%%Jj%%%%
20955a%%%%%J%J%J%%%j%jj%%%J%J%%%j%%%J%%%%%%%%j%j%%%%%%%J%J%J%j%%j%J%%%%%%%j%j%%%
20884aj%%%%%%J%%%%%J%%j%%%%%%%%%%%J%%Jj%%j%j%%J%JJ%J%%%%j%%j%%%%%%J%%%%jjj%%%%J%
20813aJKJ%J%%jj%j%%j%j%%%%%%j%J%%J%J%%%%%J%%%%jj%j%%%%JJ%%%j%%%%%%j%%j%%J%J%%%jj
20741bj%jJ%J%J%%%%%%%%%%%%%%%%j%%%%J%%%%JJ%%%%j%j%J%J%%%j%j%j%J%JJ%%%J%%jjjj%%%J
20670aJ%%%%%%%J%J%%%j%jj%%%j%%JJJ%JJj%j%%%j%J%%%%%%%%J%%%j%%j%%%J%J%J%%%%%%%jjjj
20599aj%j%%J%%J%%J%J%J%%jj%j%%%%%%%%%J%J%%%%%%%%%j%%j%%%%%J%%j%%%%%%%%J%%%J%%%j%
20527@%J%%%%%%jj%jJ%JJJ%j%j%j%%J%J%j%%j%%%%%%%%J%J%J%%%%jj%j%%%%J%J%j%j%j%j%j%%%
20456dJJJJJ%j%jj%j%J%%%J%%J%%%%%J%%%J%%%j%%j%%%%J%%%J%%%%j%j%%J%%J%%%j%%j%%j%%%J
20385@%J%%J%%%%%%%%%%j%jj%J%%%J%%j%%%%J%%%%j%%%j%%%J%%%%%%%%%%%j%%%j%%%J%J%%%%j%
20313a%%%J%J%%%j%j%%%J%J%%j%j%%%J%J%%j%%%%%J%%%J%%%%%%%j%%j%%%%%%%%%%j%%%%%JKJJ%
20242D%jj%j%j%%j%j%j%%%J%%JJ%%%%%%%%%j%jj%%%%J%%%%%%%J%JJJ%%j%kjj%%J%JJ%%%%%j%j%
20171b%%%%%J%%%%j%j%J%J%J%J%JJ%J%%j%jjj%%j%%%J%J%J%%%%%%J%J%J%%%j%jkj%j%j%%%%J%J
20100@%%%%j%%%%%%J%%%%%J%J%%%%%%J%j%jjjj%%%j%J%%%J%%J%%j%%%%J%J%Jj%j%%%%j%J%%%%j
20028a%j%%%%J%%%%%j%%%JJ%J%%%%%%%%%j%%%%%%%%j%%%J%J%%%j%j%%%%%%%%%J%J%%j%j%%%%%J
19957@%%%%%%%%%J%%j%j%jj%%%J%J%JJ%%%%%%%%%%%j%j%%%J%JJ%%%%j%j%%%%J%%%%%%j%J%%J%%
19886B%%j%%%%%%%%J%J%J%%j%j%%%j%jj%j%%%%%%%%%%%%%J%JJ%JJ%%%jj%j%%%j%j%%%%J%%%%%%
19814a%%%%%%%%%J%%%J%%%%%%%%%%%j%%%%J%j%%%%%%%%j%%%%%J%JJ%%jj%j%%%%%%J%%%%%%%%%%
19743@%j%%j%%%%%J%JJ%J%j%jj%j%%J%J%%%%%J%J%J%%j%%jj%jJ%JJ%%%jj%%%%%Jj%%%%%J%%%j%
19672@%%%J%J%%%%%%%J%%%%j%jj%%%%%%j%jj%%%%JJJJ%J%%%j%j%%%%%%%%J%%j%%%%%%%%%%%%%%
19600@%%j%%%%%%%%%%%%%%%%J%%%%%j%j%%%%%%%%JJJJ%J%jj%j%%%%j%%%%%%%%%%%j%%%%%%J%JJ
19529AJ%%J%j%j%%%%%%%%%%%j%%J%j%j%j%%j%%%%%JJ%JJ%%%%%%j%%%%J%%%%%%%%%J%%%jjj%j%j
19458c%%%%%%%%%%%J%J%JJ%J%j%%j%j%j%J%J%Jj%%%%%%JJ%J%%%%jj%jj%%J%J%Jj%%j%%%%%j%%%
19387a%J%J%%%%jjj%j%%%JJ%J%%j%j%jJ%JJJJ%Jj%j%j%%j%%%%%j%%%%%J%%Jj%%%%%J%%%j%%%%J
19315@JJJJ%J%jjjjjjk%j%J%JJJ%%%j%j%%%%J%%%%%%%%%J%J%%%%%j%%%%%%%%%%j%%%%%%%%%%j%
19244b%J%J%JJ%%%%%j%%%%J%%%jjj%j%%%%%%J%%J%J%%%%J%%%%j%j%j%%%%j%%JJJ%J%%J%J%%%%%
19173D%%j%%%j%j%j%%j%j%J%J%J%%j%j%%J%%%%%j%%j%%%%%%J%JJJ%%%%j%%%j%%%%%%%%%j%%%%%
19101a%%%%J%%%%%%j%%%%%%%%%%J%%%j%%%%%J%J%J%%%%j%jj%j%J%J%JJJ%%%%jjj%%%%J%%%%j%J
19030A%%%j%%%%%J%%j%%%%JJ%j%jj%%%%J%%%%%%j%j%%%%%%%%%J%%%J%%%%%%%%J%%j%jj%j%%%JJ
18959a%J%J%%%j%%j%%%%%%%JJJ%J%%J%%%%j%%%%j%%%j%%j%%j%%%j%%%%%%%%%%%%J%%%%%J%%%%%
18887@%%%J%%%j%%j%j%J%J%%%%%%J%J%J%%%%jj%jj%%J%%%jj%%%%J%%%%J%%%%%j%%J%%J%%%%%j%
18816@%%%%JJ%J%j%jj%%J%%%%%%J%%j%kjjjjJ%J%J%j%J%J%JJ%J%%%%j%%%%J%%%%%%%jj%%%J%%%
18745A%%%%%%%%%%j%%%%%%%%%%%%%%%%%%%j%%j%%j%%JJJJ%%%%j%j%%%%%%%%J%%%%j%%%%%%J%JJ
18673B%%Jj%jj%jj%%%%J%%J%%%%%%%%%%%%%%%%%%%%%%%j%%j%%JJJ%%%jj%%%JJJ%%%j%j%%%%J%%
18602AJ%J%%j%j%j%j%%%J%J%%Jj%jj%%J%JJ%j%j%j%%%JJ%J%jj%j%J%J%%%%%%%%%%j%%%j%j%%%%
18531b%%%%%J%J%%J%%%j%%%%j%J%%%jjj%%JJ%JJJ%%%%j%j%%J%%%%j%jjj%J%JJ%J%%%j%J%JJ%J%
18460DJ%%%%j%kj%%%%%%J%%%j%%%j%%j%j%JJ%JJ%%%%%j%%%%%j%%j%%%%%%j%%%jJ%%%%%%%%%%%%
18388b%%%%%%J%J%%%%%%%%%%%%%%j%%%%%%%%Jj%%%J%J%J%%%%j%%j%%%%%%%%J%%%%%%j%jj%j%j%
18317dJ%%J%J%J%%J%%%%jj%j%JJJ%Jj%j%%%%J%%%%%%%j%j%%j%%%J%%J%%j%j%j%J%JJJ%%%%%j%%
18246@%%%%%%%j%%J%J%%%%J%%%J%jj%jj%%J%J%%%%j%%%%%%%%%J%%%%%j%j%j%%JJJ%%%%j%%%%j%
18174aj%%%%J%JJ%J%j%jj%%%%JJ%J%J%%j%%j%j%j%jJ%%%J%%%%j%%j%J%%J%%J%%J%%%%%j%J%J%%
18103C%%j%%j%j%%%JJ%J%%j%jj%jj%%%%J%%%%%%J%J%%%%J%%%%j%%jj%%%%JKJ%Jj%j%%j%%j%%j%
18032aj%%%%JJJJ%%j%j%j%%%J%%J%%%%%J%J%%%j%j%%%%j%%jJ%J%J%j%j%j%%jj%j%%%JJJJJ%J%%
17960B%%%%%%j%j%%j%%j%J%%%J%%%%%%%%j%j%%%%%%J%J%J%%j%j%%%J%J%%%%j%%%%%%%j%j%%%%%
17889bJ%J%J%j%%J%J%%%j%j%j%%j%%%%%J%J%%%%%%%%j%%%%%J%%J%%%%%J%%%%%j%%j%%j%j%J%JJ
17818A%%%j%j%j%%J%%J%%%%%%j%%%j%%%%%%%%%%J%%%%%%J%%%j%%J%J%%%%%%%%%%jj%j%%J%%J%%
17747@j%%%%%J%J%%j%j%%j%%%J%%J%J%%%%%%j%%%%%%%J%%%j%%%%%%%%%j%j%j%%J%JJJ%%%%%%%%
17675Aj%%%%%j%%%j%J%%%%%j%%%%%J%%J%J%%%%%j%jjjj%%JJ%J%%j%jj%%J%J%%%%j%%%J%%%J%JJ
17604A%J%%j%%j%%j%%%%%%%%%%%J%J%J%%J%j%%%%J%%J%j%%%%%%J%J%j%j%j%%J%%%%%jjjjj%jJ%
17533b%%%J%%%J%J%%J%JJ%%j%jj%%%J%%%%%%%J%%%jj%j%%J%%%j%JJ%Jj%jj%%%%%%%%%%J%%%%%%
17461A%Jj%%j%%%j%%%%%%%%%j%j%j%%%JJJJ%J%j%%%j%%%j%j%%%%JJJJ%%jj%j%%j%j%J%J%J%%%J
17390@%%%%%%%%%%%%%%J%%%%%%%j%J%J%%jj%j%%%J%JJ%J%%%%%%j%j%%j%%%%%j%j%%%j%%%%JJ%J
17319@%%J%%J%%j%j%j%%%%J%J%%%%%J%%%%%%%j%j%%%%%%%%j%%J%j%%%%%%J%%J%%%%%j%j%%%%%%
17247a%Jj%%j%%%%JJ%JJ%j%j%%%%J%j%%%%%J%%%j%%j%%%%j%J%JJ%J%J%j%%%%j%%%%%%j%j%j%%%
17176b%J%%j%%%%%%%%J%%%j%j%J%%J%J%%j%%j%%jJ%%J%%%%J%J%J%J%%%%%j%jj%jj%J%%J%j%%%%
17105a%%%%%%j%%%J%J%J%%%%j%%%%%%%%j%%J%J%J%%J%j%j%j%%%%%%%%%%%%%%%%%%j%%%%%%j%%%
17033b%J%%%%%%%%%%J%%%%%%J%%%j%%%%%%J%%J%%j%jjjj%%%%%J%J%J%%%%J%J%%j%j%j%%%JJJ%%
16962B%%%%%%%J%%j%j%j%%%J%%%%j%%%%J%%J%%%%%%%%%%%%%%j%%j%%%%%%%%J%%%%jj%%%%j%%j%
16891c%J%J%%%j%%%%%%J%J%JJJ%Jj%jjj%j%%%%J%%%j%%J%J%%%%%jjj%j%%%JJJ%J%%j%%j%%%J%J
16820AJJ%%%%j%jj%%j%%J%%j%%j%%%%%%%%JJ%J%%%%%%J%J%%%%j%j%%%%%%%%%%%J%%%jj%%%%%%%
16748@%%jj%%j%%%%%J%%%J%%%J%%J%J%%%%%%j%j%%j%%%%%%%%%%%%j%%%%%J%%J%%J%J%%%jj%j%%
16677aJ%J%%%%%jjj%%J%J%%%j%j%j%%%%%JJJ%J%%%%j%j%%JJ%Jj%j%jj%%%%J%JJ%J%%%%jjkj%%%
16606c%J%%%%%J%%J%J%%%j%j%%%%%%j%%%%J%J%%%%%J%%%%%%J%%%%%j%j%j%jJ%J%J%%j%%j%%j%j
16534cj%%%%J%J%%J%J%J%%%j%%%j%j%%%%J%%%%%%%%J%%%%%j%%%%JJ%%%%jj%%%%%%Jj%J%%J%J%%
16463B%j%%%%%%%j%j%j%%%%J%%%%J%%J%J%J%%%j%jj%j%%%JJ%J%%j%%%%j%j%%J%JJ%Jj%%j%%%%%
16392A%%jj%j%JJJ%J%%%%j%jjjj%%%JJ%J%%%j%%%%%%J%J%%j%%j%%%%J%%%%%J%%j%%%j%%%%J%%%
16320@%%J%%%Jj%j%j%%%j%J%%%%%%%J%%J%%%%%%%%jj%%%%%J%%J%J%Jj%j%%%J%J%%%%jj%j%%%J%
16249A%%j%%j%j%%%%%J%J%JJ%%%j%%%%J%j%%%%j%j%j%%JJ%J%J%%%%%J%%%j%%j%%%%%%j%j%%%%%
16178a%J%JJ%JJ%%%%jj%%j%%J%%j%j%%j%%J%J%J%%%%j%jj%J%J%%J%%%j%%%%j%%%%%%%%%%%%j%%
16107a%%JJ%%%%jj%jJ%%J%%%%j%%%%%%J%J%j%%%%%%%%%%%%%J%%J%%%%j%%j%%%%%%%%%%j%%%%%J
16035@%J%%%%%%j%j%j%%jJ%%%%%%J%%%%%%%%j%%%J%%%J%j%%%%%%J%%%%%j%%J%JJ%%jj%j%%%%%%
15964a%%%%%%%J%%%%j%j%J%%%%%%%%%%%%%%%j%%%%%%%%%%J%%%%%%%%%J%J%J%%jj%j%%JJJJ%%%j
15893Bjjj%jJ%JJ%J%%%%%%jj%jJ%%J%%%%%%%%%%j%%%%%j%%J%%J%%j%j%%%%Jj%%j%J%JJJ%%%j%%
15821A%%%%J%j%jjjj%%%%J%J%%%%j%%%%%%%%%j%%%J%J%%%%j%JJJJJ%%jj%jj%%%JJJJ%J%%%jjjj
15750@%%%%%%%%%%%%%%%%j%%%J%J%%%%%j%%j%%J%%%%%%%%%%%J%J%%%%%%j%%J%%%%%j%jj%%%%JJ
15679A%%%%j%%%%J%%%%%%J%%j%%%j%%J%%j%%%%J%J%%j%%%j%%%j%j%%J%J%JJ%J%%%jjj%jj%%%JJ
15607@%J%jjjj%%%J%%JJ%J%%%%%j%j%j%%%J%%J%%j%J%%%j%%%J%J%Jj%%jjj%%%J%J%%%j%%%%%J%
15536@%J%%j%%%%%%j%j%%J%J%%%%j%%%%%j%%%%%%%%%%%%%%%J%%%%%%%%J%J%%%%%J%%%%%%Jj%jj
15465@%j%j%%j%J%J%J%J%J%%%%j%j%j%j%%%J%%%%%%%%j%J%%J%j%j%%%%J%JJ%J%%%j%%%j%%%jj%
15394b%%%%%J%J%JJ%%%j%j%%%j%%%J%J%%%%%j%%J%%%%%j%j%%%%%%JJ%%%%%J%%%%%j%%%%J%%%j%
15322Ajj%j%%%%%JJJJ%J%%%%%%%J%%%%%J%j%j%%%%%%%%%j%j%j%%%j%j%%J%J%J%j%%%%%%%%%%jj
15251b%jjj%j%J%%%%J%JJJ%J%%%%%%%%%j%%J%J%%%%jj%%%J%%%%%%%%%%%%%J%%%%J%%%jj%j%J%%
15180@J%%Jj%%%j%%%JJ%%j%jj%j%%%%%%J%%%%%%%j%j%%%J%%J%%J%J%J%%%%j%%%J%%%%%j%j%%%%
15108@%%%J%%%%j%j%%JJ%%%%%j%%j%%%J%%JJ%Jj%jj%j%%J%%%%%%J%%%j%%%%%%Jj%%%%%%%J%j%j
15037a%%j%%%JJJ%J%%jjj%jJ%J%J%%%J%j%%j%%J%%%J%j%jj%%%%J%%%%j%jJ%JJJJJ%%%jjj%%j%J
14966A%%%%j%%%%%%%%%%j%%%J%JJ%%%%jj%jj%j%%%JKJJJ%j%jj%j%%%%%%%%%%j%%J%%j%%%%J%JJ
14894A%%%j%%j%%%%%j%%%%%%%%%%%%J%%JJ%%%%j%%%%%%%%%%J%%J%%j%j%%%J%%%%j%%%%J%%%jj%
14823aj%%%J%%J%%%J%%%%%Jj%%%%%%%J%%%%j%jjj%J%%J%j%%j%%%%J%%%j%%%%%J%J%%J%%%j%jjj
14752cj%JJJKJJ%%jj%j%%J%%%%%j%%%j%j%%%%J%%J%%%j%j%%%%J%J%%%%%J%%j%%j%%J%%%%J%%J%
14680B%%%j%%j%%%%%%J%J%%%j%jj%j%%%%%%JJ%%J%j%%%%%%J%%J%%%j%%j%%%%%J%J%%%j%%%%%%%
14609A%j%%%%%%J%%J%%%j%%%%j%%jj%%%%%J%%%J%J%%Jj%%%%j%%%jj%j%%JJJ%J%%%%%jj%%%%J%%
14538@J%%%j%%%j%J%%%%%%j%%%%%%%%J%%%%%%%%%%%%%%j%%%%J%J%JJ%%%%j%j%j%%J%%J%%J%j%j
14467A%jj%%j%%%%J%JJ%%%%j%%J%j%%j%%J%J%%j%jj%%%%%J%%JJ%J%%%jj%%J%%%%%%j%%%%%%%j%
14395aj%j%J%JJ%J%%%%%%%%%%%%%J%J%%%%j%jjj%j%J%JJ%%%%%j%%J%J%%J%%%%%jj%%J%%%%j%jj
14324aj%%%%%%%%J%%%%Jj%%j%j%J%%%%j%%J%JJJJJ%%%jjjjj%j%J%J%J%%%%%%%%%%J%%j%%%%j%%
14253aJ%JJ%%%%jj%%j%%j%%%%%%J%%%%j%j%%%%%%J%J%J%%%%JJ%J%%%%%j%j%%%j%%j%%%j%%%%%%
14181b%J%%%%J%%J%%%%%j%%%J%%%j%jJ%J%J%J%j%%%%%%%%%%%%jjjj%J%J%%%%%%%j%%J%%%j%j%%
14110b%J%%%%%%%%%j%%j%%%%J%J%%j%%%%J%J%%%%%j%%jJ%%J%%j%%%%%%J%%%%%j%j%jj%%%JJKJJ
14039B%%%jj%%%%%%%%j%%j%%%%%%%J%%%%j%j%%%%J%%%%%%%J%J%%%%%j%%%J%%%%%%j%%%%%%%j%%
13967b%J%JJ%J%%jjjjj%%J%J%J%%%%%%%%j%J%%%j%%%%%%%%%%%%%j%%%%J%J%J%%j%%J%%J%J%%%%
13896C%j%%j%%%j%%j%J%%%%%%%%%jj%%%J%JJ%%%%%%%%%%%j%%%%%%%%%%%%j%%j%J%JJ%%%jjj%j%
13825c%%%%J%%%%jJ%%%%%J%%%%%%%%J%%%%jj%j%jJ%J%J%%%%%%%%%%%%%J%%j%%J%%J%%J%%%j%j%
13754@%j%%J%%%J%J%%%%%%%j%%%%%%%%j%%%%j%%%%JJ%J%%j%%%%%j%j%j%%JJ%JJJj%jjj%j%%J%J
13682@J%J%%%%j%%%%%J%%J%%%%%j%jj%j%j%%%%J%J%%%%%%%%%%%j%J%%%J%%%%%%%%%%%%%%%J%J%
13611C%%%%%%%%%j%%%J%%%%J%%%%%J%%%jj%j%%J%%%%%%%%%%%JJJ%%J%%J%jjjjj%%%JJJ%J%%%%j
13540F%%J%%%j%%j%%%%JJJJJJJJ%%%jj%j%j%j%j%%j%%%JJ%J%%%%%%%%%%%%%J%%J%%%J%%%%%jj%
13468A0j%%%%%%%J%%%%j%jjj%%%%J%%J%%%%%%J%%JJ%J%j%j%%%%J%j%%j%%%%%%%J%J%J%JJ%%j%%
13398A3J%%%j%j%jkjjjj%jJ%%%J%%%%%%%j%j%jj%%J%JJJ%J%%jj%j%%%%%J%%%%J%%%%%J%%j%j%%
13328E%%J%%j%j%%J%%%%%j%j%jjjjj%%%%J%J%%%j%j%%%%%%J%%J%%j%%j%%%%%%%%%%%%%%%%%%%%
13256b%%%%%%%%%J%%j%j%%%JJJ%J%%j%j%%j%%%%%%%%%j%J%%J%%%%%%j%%J%J%%%%%jj%jj%%%J%J
13185b%%%%%%%%%%j%j%j%%J%%%%%%J%%J%%%J%%J%%%%j%%%%j%%%%j%%%%%%%%J%J%%%j%%%%%%%J%
13114a%%%j%jj%%%%J%%J%%%%%%%j%j%%JJJJKJ%J%j%%%%%J%J%%%%jjj%jj%j%%j%%%%JJ%J%%j%%j
13042a%%%%%j%%%%%%J%%%%%%%j%%%j%%%%J%%J%%J%JJJKJ%JJ%JJ%J%%j%j%jjjj%jj%J%J%%%jj%j
12971B%%%%%%j%jj%%%J%J%j%j%jj%j%%J%%%%j%%%%%J%%%%j%%%%%J%JJ%JJ%%%%Jj%%jj%jj%j%%J
12900c%%J%%j%j%%%%%%%%J%%%J%%J%%%%jj%j%%J%%%J%%j%%j%jj%%j%%%%j%%%%%j%j%%jJ%J%%%%
12828i%%%%%Jj%%j%%j%%J%%J%JJ%JJJJ%J%j%%%%%%J%%%J%%J%JJJ%%jj%j%%%%%J%%%%%J%%j%%j%
12757@j%%%%j%%j%%%j%jj%%%%J%%%j%j%j%%J%%%%J%JJJJ%JJJ%JJ%%J%%%JJ%%JJJ%JJJJ%%J%J%%
12686A5%%%%J%%%%%%%%%%%%%jjjjjj%%j%j%%J%%%%jjj%j%%%%j%%%%j%%%%J%JJ%%%%jJ%JJ%JJJ%
12616A1JKJJJ%J%%JJKJKJJ%%%%%%J%JJ%JJ%J%JJ%JJJJJJ%JJ%J%%%%J%%j%j%%%J%%%%%%%J%%%j%
12545D4jjjjj%%%%%%J%J%%%%%%%J%%J%%JJJJKJJJJJKJKKKLKKKJKKLKLLLLLLLKLKLKKLLLMLMMLM
12475A48LLLLLLLLKLKLKKJKKLMMNNONOOOOOOPQQQRJ0J0J1J1J1J2J3J4J5J8J9K0K3K5K8L0L5M0
12424F44M4N1N8O5P4Q3R3J01J09J14J16J12J01Q2N4K2j4m9p9j01j14j19j16j10j00r0q0p1o1n4
12395G65m7m1l5l0k6k1j9j6j4j3j0rponljJKLNOQQJ0J1J2J2J4J4J4J5J5J5J6J7J8J9K1K4K5K7
12354G94L0L2L5L9M3M7N3N9O7P7Q8J00J14J29J47J64J82J96K07K11K05J88J60J22P6K5k6p5j16
12326C373j50j75j91j97j98j93j84j71j58j43j30j15j02r1p9p0o1n3m7m1l6l2k8k5k3k1k0j9j8
12299F02j7j7j6j4j3j1rqonmllkj%JKLNOPRJ1J2J4J6J9K0K4K6K9L4L9M4N2N9O8P8Q9J00J13J23
12257A476J33J39J38J29J10Q1M1mn1r2j25j46j54j55j46j34j21j07r5q5p6o7o0n4m7m2l6l3k8
12229C89k6k2k1j9j7j7j5j5j3j2j1j0rqppopoponnmnmmmmmmlmlllkkkkkkjkjjkjjjjj%%jjkkjk
12171C6jjjjj%jjj%j%j%j%%%%jjjjjj%j%j%j%%j%%%%%%%%%jjj%j%j%j%%%%%%J%j%j%j%%%J%%%%
12101H%%%%%%%%j%j%J%%%j%j%J%%J%%%%j%%%%%J%j%jj%j%%%%%%%J%%%%%j%j%j%%j%J%%J%J%J%%
12030DJ%j%%j%%%%%%%J%%J%%%%j%j%jj%j%%%%%JJ%%%J%%%%%%%%%%%jjj%j%%J%JJ%%%j%j%%%%%%
11958@%%%j%j%%%JJ%J%J%%j%%%%%%J%j%J%%%%J%%%%%%J%%%%%%%%j%%%j%j%j%j%%JJ%J%%%%j%j%
11887@j%%j%j%%JJ%J%J%%%%%%%J%%Jj%J%%%%%%j%%%%%%%%%%%%%JJ%%%%j%j%j%j%J%J%%%j%j%%%
11816@%j%%%%%%J%%%%%%%%%%%J%%%j%j%%jJ%%J%J%%J%%%j%j%%%%%%%%%J%JJ%%%%j%j%%%%%%J%%
11744BJ%%%J%%J%J%%%%%%JJ%J%%j%j%jj%j%%%%%%%%j%j%%%jJ%%J%j%j%%%%J%J%%%J%JJ%J%j%jj
11673D%%%J%JJ%%%%%J%JJJJJJJJJJ%%jjkjkjk%j%%%%%%%%%j%j%jjj%j%%%%J%J%%Jj%j%jj%%%%J
11602AJ%J%%%j%j%%%JJ%J%%%%%%j%%J%JJJJJ%%%j%j%jjj%%%%%%%%j%j%j%%%%%%j%j%%%J%J%%jj
11531a%j%J%J%J%%%j%%jJ%%JJ%J%%jjjj%jJ%%%%%%%j%%%%%%J%J%%%J%%%%%j%j%%%%%J%%J%%%%%
11459Aj%jj%%j%%%J%J%%Jj%%%%%%J%%j%j%j%%%%J%J%%%%%%%%J%J%%%j%%j%%%%JJ%J%%%j%j%%%%
11388@J%J%%%%%%%%%%%%%j%j%j%jJ%%J%%%%%j%%j%%%J%%%JJ%%%%j%%j%j%%%J%J%%%%%%J%J%%j%
11317A%%j%j%j%%%%%%%%%J%J%J%J%j%J%%%%%%%Jj%jjjj%%%j%%J%%J%%J%%%%%%%%%%%%j%%%%%J%
11245@%%%%%%%%%j%j%%%%%%%%%JJJ%J%%j%jj%J%J%%%%%%%%J%%%%j%j%%j%%J%J%%J%%%%%jj%j%%
11174a%J%%%%%%%%j%j%%%%%%J%%%%%Jj%J%JJ%%%j%%%%%%%%%j%%%%%%%%%%J%%%%%%%%j%%%%%%%%
11103@%%j%%%%%J%J%%J%%%%%%j%j%%%j%%%%j%%%J%%%%%%%%J%%%%%J%%%%%jj%%%%J%J%%j%j%%J%
11031@J%J%j%%%%%%%j%%%%%j%j%%%%%JJ%J%%%%%%%%%%%%%J%%%%%%%%j%j%%jJ%%JJ%%jjjj%%%JJ
10960@%%%%%%%j%%%%%j%%%%J%J%%%%j%%jJ%%%J%%%J%JJ%%%j%j%%%J%J%%J%%j%%j%J%j%%j%jj%%
10889a%%J%JJ%%%%%j%%%%J%JJ%J%%%jj%j%%%j%%%j%jj%%%%%%J%%%J%%%%j%%%%J%JJJ%%%%j%%%j
10818A%j%j%jJ%%JJJJ%JJJ%%%%j%j%jkjj%%%%%%%%%j%J%JJJ%%%%%%%j%j%j%J%J%%%j%kjj%%%JJ
10746bJJJ%%j%%%%%%j%%%%%%J%%%%%%%%j%J%%%%%%%%J%%%j%%j%%%%JJ%J%J%%jj%j%%%J%%J%%%j
10675Aj%j%%j%J%%%J%J%J%%%j%jj%%%J%J%J%J%%j%%J%%%%%j%%j%%%%%%j%j%jJ%J%J%%%%%%j%%j
10604a%%%%JJ%%%%%jJ%%J%%%j%%j%%%%%%%%j%%%%J%JJ%%J%JJJ%%%%%%%J%JJJKJKKJKKJJ%kjkkk
10532A5kjkjjjjjj%j%j%%j%%%%%%%j%j%%j%%%J%J%%%%%%%%%%%%%%%%J%%J%%%%%jjjj%j%%JJ%%%
10462a%%j%%%%j%%%%J%%J%%J%J%J%J%%jjj%%%%%%j%%%j%J%J%%%jj%j%%%J%J%%%%%%%%%%%j%%%j
10391c%%%%%%J%%J%J%J%%%%%%%%J%%J%j%%j%%%%%j%%%%%j%jj%j%jJ%%%%%j%%j%J%J%J%%%%%%j%
10319djJ%J%JJJJ%Jj%jkjjj%JJ%JJJ%%%j%%%J%J%%%%%j%jj%%j%%%%J%%J%%%J%J%%j%jj%%%J%J%
10248@J%%%j%jj%jJ%J%JJ%%%%jjj%j%%%%%%%%%%J%%J%%J%%J%%%%%%j%j%j%%j%%%%%%%J%%%%%%%
10177b%%j%%%J%J%%%%%j%%%%%%%j%%%%J%JJ%J%jjjjj%%%J%%%%%%%%%%J%%%%J%J%%%%%%jj%j%J%
10105b%%J%%J%%%%%j%j%jJ%%J%J%%%%%%%J%%%j%j%j%%%%%J%%J%j%%j%j%%J%J%J%J%%j%j%%%%%j
10034b%jj%%J%J%%%%%%%%%%%j%%%%%J%J%%%%%%%%%%%j%%J%%%%%%%%J%%%J%%%%%%%%%%%%%%%jj%
9963a%%%%J%%%%%%%%%%%%%%J%%j%jj%%%J%J%JJ%%%%%j%%%%%%%%j%%%%%%%%%%%J%%%J%%%j%%%%%
9891A%%%%%%%J%%%J%J%%%%%j%j%j%%j%%J%%J%J%%J%%j%jj%j%%%J%%J%%J%%JJ%%%jjj%j%J%J%J%
9818DJ%j%j%%%%J%%J%%%j%%%J%J%%j%jj%%%%%%%%J%%%%%%%%%%%%%%%%J%JJ%%%%%jj%j%%%%%J%%
9746EJ%%%j%j%J%JJJJJJ%Jj%j%j%%j%%j%%%%%%%%%%%%%%J%%j%%j%%J%%J%%%%%J%%%j%j%%%%%%%
9674G%%JJ%%%%j%%j%%J%J%J%%j%j%j%%jj%jj%%%J%JK%J%%%%j%%J%%%%%%%%jj%%%%j%%%%%%%%%J
9601Fj%%%j%%%%%%j%%%J%%J%J%%%%%J%%Jj%jj%jj%%j%%%%J%J%%%%%j%jjj%jJ%J%JJ%%%%j%%%%%
9529BJ%%%%j%j%%%%%j%j%%%j%%J%%J%j%%%%J%J%J%j%jj%%%J%j%%%%%%%%%%jjj%%%JJ%J%J%%%%%
9457@J%%%%j%%%j%%%%%%%%%%J%%J%%jj%j%J%%%j%j%%%%JJ%%%%%j%%J%%%%%%j%%J%J%%%j%%%%%%
9385a%%%%%%%%JJ%J%%jj%j%%%J%J%Jj%j%j%j%j%%%%J%%%%%%J%%%%%J%%J%%%j%j%%J%J%J%%%j%J
9312B%J%J%J%J%%%j%%%jj%jjj%%%%%%JJJ%jjj%jJ%%%%%j%%j%j%%J%%%%J%%%%%%%JJJ%J%%j%%%%
9240B%%%%%J%J%%J%%%%jJ%%%j%%j%%%%%%%%%%%%%%%%%%%j%j%%%%%%J%J%%jj%jj%%%%%%%j%%%%%
9168bJ%%%%jj%%%%JJJ%J%j%j%%%%%J%J%%%jjj%%%J%J%J%%%%%j%j%j%%J%JJ%%j%jj%%%%J%%j%%J
9096a%%j%j%j%%%J%J%J%j%jjj%%%J%JJ%%%%%%%%%%%%%j%%%J%J%%%j%%%j%J%J%J%J%%%%J%JJ%J%
9023E%%%%%%%%%%%%%%J%%%%j%%j%jj%j%%%%%%%%%%J%JJ%%j%j%%j%%%J%%%%%%%j%%%J%%J%JJ%%J
8951F%JJJ%J%%%%%%%%%%JJ%JJJJ%J%j%%%%%J%%j%%%%%J%%%j%%%%J%%%%J%JJ%%%%jj%j%%%%%J%%
8879A8%%%%%J%JJ%J%%%%%%%J%J%%%J%JJJKJKJJJ%%JJJ%J%%%%J%%%%%J%JJJ%JJ%%%J%JKJJJJJJ%
8808E7J%%%JJJ%JJJ%J%%%%%%%%JKJ%JJJJJJ%%J%JJKKKKJKJKJKKKKKKLKKLKLLLMMNNOOOOOPQQR
8737B06J0J0J2J2J4J5J6J6J8J8J8J6J5J3J0PMKklnopppooonoonnllkkjj%j%%%JKKKLLLMNNPPQQ
8681C97RRRJ1J2J2J3J3J3J4J5J4J6J6J7J8J9K0K0K1K2K3K3K5K5K6K7K7K8K8K8K8K7K7K4K2K0J5
8645A133J1PJnrj4j6j9k1k1k3k3k2k3k2k2k1k0j9j8j6j5j4j3j2j1rrppnnmljjJKMMOQRJ0J0J1
8600G67J3J3J4J6J6J7J9J9K0K2K2K5K6K8K9L0L3L3L5L6L7L7L8L8L6L6L3L1K9K5K1J7J2P%oj2j9
8564A593k4k9l3l6l8m0m0m0m0l8l8l7l6l6l4l3l2l0k9k8k6k4k3k2j9j9j7j5j4j4j2j2j1j0rqon
8527F36llj%JLLMNNPQRJ0J1J2J5J6J8J9K2K3K5K7K8L1L1L3L3L2L2L1K9K6K3K0J5J3QLjpj2j9k4
8484A197l1l6m1m3m5m5m4m4m2l9l7l5l3l0k9k8k6k4k3k1k0j9j7j7j6j5j5j4j3j3j2j1j1rrrppp
8446B60onnmmlkkk%%JKKKLLMNOPPRQJ0J1J3J4J5J7J7J7J8J7J5J4J1PKlqj4j8k2k4k6k6k6k3k2
8398B72k0j8j7j5j4j2j2j1rqqoooonnnmlmlmllllmklkjjjjkkkjjjjjjjjkj%jjj%j%%%%j%jj%jj
8335A8kj%jj%%%%%%%%%%j%jj%%%%%%%%%j%%j%%%j%J%%%j%j%%%%J%%%%%%%%%%%J%%J%jjjjj%%%J
8264Ej%%j%j%%%%%J%%%%%%%%%%J%j%%j%j%j%%%%%%j%%JJ%%%%%%%%%%%%%%%%%J%J%J%%%%%%%%j%
8192Cj%%%J%J%j%j%%J%J%J%J%%%%%j%%jj%%%JJJ%%%jj%%%%J%%%%j%%j%%%%%%J%%%%%%j%j%%%%J
8120C%%J%%%%%J%JJ%%%J%j%jj%%JJJ%Jj%%%%%%J%%%%%J%%%%%j%J%J%JJ%%%%j%%%%%%%%%j%%%%%
8047A1J%J%JJ%J%J%J%J%%jj%j%%%j%%%%J%%%J%J%%%%%%j%%J%%J%%%J%%%%%%%J%J%%J%%%JJ%J%J
7976B7%%%%J%%%%J%JJ%J%%%j%j%%%%%J%%%%J%j%%%%JJJ%J%%jj%%%j%%%J%J%J%J%%%%%J%%%%%%J
7905C8%%J%%%JJ%J%%J%%J%J%j%%%%%%J%J%%%J%%%%%%%%%j%%%%%%%j%j%%%J%%J%%%%J%%J%%%%%J
7833D9JJJJ%%%%JJ%JJ%%%%j%%JJ%JJJJJJJJ%%%j%j%%%%%%%J%%%%%J%%%%jJ%%JJ%%%j%j%J%%J%J
7762F9%J%J%%J%%%%%J%JJJKJJ%J%J%%%%J%J%JJJJ%%%%%%%%%%%J%J%J%J%J%J%J%JJKJJJ%J%%%%%
7691A03%%j%J%JJKJJ%J%j%%jJJ%JJ%%%%j%j%jj%%jjjj%j%%%jjjkkkkkkkllllmmmnmlmlllklkkk
7620B6kkkjkkjjjjj%jjj%jjj%j%j%%%j%j%j%%%%J%%%%%jjj%j%%j%j%j%j%%jj%%j%%%%%%jjj%jj
7549a6%j%j%%%%%j%%%JJ%%%%j%j%j%j%jj%%%J%j%%j%%%%%%%j%jj%%j%J%%JJJ%%%%%%JJ%%%%jj%
7478b4%JJJKJ%J%%%%J%J%%%%%J%J%%%%j%%J%%jjjj%j%%Jj%jjjjjjj%%%%%%%%j%j%%%%%J%%%%%%
7406b6j%j%j%j%jj%j%%j%%j%jj%j%%j%jkjjjJ%JJJ%%%%%J%JJJKJ%J%%J%JKJ%JJ%KKKKKJJJJJJK
7335hKKKKJKJJKJJ%JJJ%JJ%%J%%j%%j%jj%j%%J%J%%jjjjjkjjkj%%j%%jjjkjkjkjj%jjj%j%%JJJ
7263a5JJJJ%JJKJKKKKKKKKLKLKLKKLKKLKLKKLKKKKKKKLKKKKLKJKJJ%JJJJJJ%JJJJJKJKKKKJKJK
7192A12JKKKLLKLKLKKLKLLKLMLLMLLKJK%JJKKKKLKLKLLMLLMLLLLLLLMMMMMLMMLMMLMKLLLLMNMN
7121C22OOOOQPQRQQQPPQQQRRRRQQQQQRRRRJ0RRRRRRRRRRRRQQPPONMNMLMMMMLMMNMNMMMMMLMLLL
7052H04LLLMLMMNMNNOPPQQQRJ0J0J0J1J1J1J2J1J1J0J1J0J1J1J1J1J0J1RRQPPPNNNMMMMMLLKKL
6999A188KKKLKLKLLLMLLMLLMMNMNNNNONPOOONMNMMMMNNONONNONNMMMMMLNMNNOPPQQRJ0J0J0J2
6934A518J1J3J3J2J3J3J3J3J3J3J3J3J3J3J2J1J0J0RPPONMLLLKLKKKKJKJKKKLLKLKLMNPPPRRR
6883A883J0J0RJ0J0RRRRRRJ0RJ1J1J2J2J4J4J4J5J5J6J5J6J5J5J5J5J4J4J4J4J4J3J4J3J4J3J2
6845B379J3J2J3J2J3J3J3J3J3J5J5J5J6J6J6J5J6J5J4J5J5J4J4J4J4J4J4J3J4J3J4J3J2J2J2J0
6810B874RQONK%jmnprj0j1j2j2j2j3j3j2j1j0qqoomljj%JJJLLMOPQQJ0J0J2J2J5J5J8J9K0K2K3
6761B943K5K6K6K8K9L0L0L0L1L1L2L1L1L0L0K9L0L0L0L1L2L2L4L4L5L4L4L3L3L0K8K6K3K1J7J5
6726C994J3J0RPPNNMMLLMMMOOOPQRRJ1J2J3J5J6J7J8J9K1K1K2K4K5K6K8K9L0L1L3L3L5L6L8L8
6683D718L9L9L9L7L7L5L4L2L2L0L0L0L1L2L2L3L4L4L6L7L7L8M0M0M1M3M5M7M9N1N4N7N9O2O4O7
6648F195P0P3P5P9Q1Q6Q9R4R7J02J05J11J14J20J26J31J37J44J50J58J65J74J82J91K00K09K20
6622I678K30K41K54K67K80K92L06L19L32L44L57L68L80L90M01M11M21M30M39M48M58M68M79M91
6599A8484N05N20N35N52N70N89O09O29O49O69O88P05P17P26P28P23P06O80O40N85N16M30L27
6577C2482K09P6p0k24l83n42o95q34r58j059j137j191j222j231j222j198j163j118j068j014
6558A6438r58r00q45p89p37o87o39n95n53n14m78m46m14l86l61l36l14k93k74k57k42k27k13
6535D980k01j88j78j67j57j49j40j32j25j18j12j07j01r6r2q8q3p9p6p2o9o6o4o2n9n7n5n3n1
6507A983m9m8m7m6m4m3m1m0l8l7l6l5l3l2l1l0k9k8k7k6k5k4k4k2k2k0k0j8j7j7j6j6j6j6j5j5
6473I40j5j4j4j3j4j3j4j3j4j3j4j4j4j3j4j4j3j3j3j2j3j2j2j2j1j2j1j1j2j1j2j1j1j0j0rqq
6436D73qpppppoonnmmmllklkjkjjJ%KLMMOOQQJ1J2J5J8K1K6L1L8M6N5O8Q3J00J23J51J81K15
6389A614K46K67K67K31J55M6p1j66k25k44k37k13j83j54j28j06q9p5o6n6m9m3l6l1k7k2j9j5j4
6361E57j1rrqpppnmjJKNOPQJ0J1J2J4J5J7K0K2K5K9L4M1N0O0P2Q5J00J17J36J55J76J92K02J96
6322B309J64J01Rr2j79k34k51k40k14j85j56j32j12r7q5p4o3n5m5l8l1k7k2j9j6j4j3j2j0j0j0
6293A47rrrrrqqponnmmlmlllklkkkkkkjj%%%%jjjjkkjkjj%j%%%j%%%%%j%%j%jjjjjkjj%jj%%%%
6222h%%j%%%%j%jj%%j%%%%j%%%%J%%%%%%j%%J%J%%j%%%%%%%%J%%j%%j%jjk%%%%J%%%%%jjj%j%%
6150b1%J%%J%%%%%%%J%%J%j%j%jj%J%J%J%%j%%%J%%%J%j%%%jJ%%%%J%J%J%%%%%%%J%j%jjjj%%J
6079a8JJJJ%J%%%%%JJJJJ%%%%j%j%%J%%J%JJ%%J%%j%j%%%JJ%J%%j%J%J%JJJ%%J%%JJ%J%%%%%%%
6007D%%%j%%%J%%%%%%jJ%JJ%J%%%%%J%J%%j%%J%JJ%%%%%%%%%%%%%%J%J%%j%j%%%%%%%%%%%%%%%
5935A1%J%%%%%%%%j%%%j%j%j%%J%%J%J%jj%%%%%%j%j%jj%%%%%%jjjjjj%%J%J%%%%j%%%%%%j%j%
5864bj%jjjjj%%%%%%j%j%%%%%%%%j%%%j%j%j%j%%%%%%j%jj%jj%%%J%%%%%%%%J%%%jjjj%%%%%J%
5792b1%J%%J%%%%%%%%%J%%%J%%%%%%j%jjjj%J%%%%%%%J%%%%%%%J%Jj%jj%%%J%J%%%%%%%%%%%%%
5720a9%%J%J%%j%jj%%j%jjjj%%j%J%%%%%%J%%%%J%%%%%j%%%J%%%J%%J%%%%%%%j%%j%J%%%%%j%%
5649b3jjjjj%j%j%%%%%%j%%j%%j%%%%%%%%%%%%%%%J%J%%%jj%j%j%%j%%J%%%%j%%J%%%%j%jj%j%
5578c9j%%%%%JJ%J%%j%j%%j%jj%j%J%%%%%%%%%%%%%%%JJ%JJ%%jjj%j%%%J%J%%%%%%%%%%j%jj%j
5506d4%%JJJJJ%J%J%%%%j%jjj%%J%J%%%%%%%jj%%%%JJJ%%%jj%%j%%j%%%%%j%%%%%j%%%%J%%%%%
5435d3J%%J%J%%J%%%%j%%%%%j%%%J%J%J%%%%j%j%j%%J%J%j%%%%%%%%%j%%%%%%%%J%%%%%%%%%%%
5364d0%%J%%%%%JJJ%J%%%%%j%jj%%%%J%%J%JJJJ%%%%%%JJJJJJJJ%%%j%jjjjjj%%%%J%J%%%%%%%
5292b9j%%j%jj%%%%JJ%J%%%%J%%%%J%JJJ%%j%j%J%KJKKLKKJJjjjjkjj%j%jjkkjkjk%jJ%J%%J%%
5221b9%j%j%%%J%JJ%J%%jJ%%J%%%%jjjjj%%%%J%%J%%J%J%%%%%%%%jjjj%%%%%J%Jj%jjjjk%j%JJ
5150c5JJ%%%%%%JJ%J%%Jj%%%%JJ%%%%j%%%%j%%%%J%%J%%%J%%j%%%J%%%%j%j%j%J%J%J%%jjjjj%
5079c2%%J%J%%%j%%%J%J%%%%%%%J%J%J%%%%%J%%%J%%J%J%JJJJ%J%J%%%%%%%%J%%%%j%%j%%%J%%
5007a6%%%%jJ%JJ%%%%j%jj%j%%%JJ%JJ%%%jjj%j%JJ%JJ%%Jj%%%J%JJJ%JJJJJJJ%%%%%%%%%J%%J
4936a%JJJJ%%%%J%JKJJJ%Jj%%%%J%J%J%%%jj%jJ%JJ%%%jjj%j%%%JJJJJ%j%jj%%%%J%%%J%%JJJJ
4864A7JJ%JJ%JJ%JJ%JJJKKJKKJJJ%J%JJKJJJKJJKJJKJJJJJKJKJJJJ%%%J%JKJJ%%j%j%JJJJ%J%%
4792H1%%J%%%%%J%JJ%JJ%JJJJKJKKJKJKKKKLKLKKKKKKKLMLMMLMLMLMNNNNONNMNMMNNONPOPOPPP
4721B92QQRRRJ0J0J1J1J1J2J2J2J4J4J4J5J6J7J7J9K0K0K2K2K5K5K8L0L3L7M2M7N3N9O7P5Q3R3
4683A331J01J10J15J18J17J10R7P9N6L1Oj7l6n0n9o5o7o8o7o6o2o0n5n2m6m3l8l5l1k8k5k3k2
4652A256j9j8j6j5j3j1j0polkjKLNORJ1J4J7K0K3K6K9L3L5L9M2M6N1N5O2O8P6Q5R7J10J26J45
4614B370J68J92K19K49K78L06L28L39L31K97K31J34J5j07k17k97l41l56l47l25k97k67k40k16
4591B447j94j75j57j41j25j11r7q5p4o5n7m9m4l9l5l2l0k8k7k5k4k2k0j7j5j3j0ronl%JMOQRJ2
4554G53J3J6J7K0K2K5K6K9L3L7M1M8N4O1O8P6Q5R3J03J10J18J21J22J15J02Q0M9J2l0o9j03j28
4523B119j45j52j51j46j36j27j15j04r5q4p5o6n9n3m6m1l6l1k9k4k3j9j9j6j6j4j4j3j2j2j2j1
4493B23j1j1j0rrqqpppoonmmmlllkmlmmlllkjkkkkklkjjjj%jjkkjjk%j%jj%kjjjjj%j%%%jjjj%
4425B5j%%%%J%j%%jj%j%%j%%%jj%%j%%jj%j%jjj%j%%%%%%%%%%%J%%%%%%%jjj%j%j%J%J%%j%%%%
4354G%J%%j%%%j%%%j%jj%%%%JJJ%J%j%j%jj%jj%J%%%%%J%J%%%j%%%%%%%j%jj%%%J%J%%%%J%J%J
4282Ej%jj%jJ%JJ%%%j%j%jj%%%%%%%%%%%%%%%J%%%Jj%%%J%J%%%%%%%%%%%%j%j%%%%J%%j%J%%%%
4209B%j%%%%J%%%%%%j%j%%%%%%%%%%%%%%%j%%%%%J%%%jj%%%%J%%J%J%%%j%j%j%J%j%%%%%%%%%%
4137b%%%%%%%%j%%%%%%%%%%%%%%%J%JJ%%%%j%%%%%J%%J%%%j%%%jj%j%%%J%J%%%%%%%%%J%J%%%%
4065A%%%j%j%%J%J%%%%%j%%J%%J%%%j%%J%%%%JJ%J%%%%j%%%JJ%JJJJJ%J%j%jj%j%j%%j%%%%%%%
3993F%%%%%j%jjj%%j%%%%J%JJJJJ%Jj%j%j%%%%%%JJ%JJJJJJJJJJJKKKJJJ%%kjlkkjkjjjjjjj%j
3920F%%%%j%j%j%%j%%%%J%%J%%%j%k%j%%J%J%%%%J%%JJJ%J%%J%%J%J%J%JJ%J%%%j%kjkkkjj%%J
3848CJ%%J%%jjjjjjj%%%%%%%%%%%%%JJ%%J%%j%%%%J%%%%%j%%j%j%%%J%%J%J%%%%%%%%%%%%%%%%
3776A%%%%%%%%%%j%J%%%j%j%J%%J%J%%%j%%%%j%%%%j%J%%j%%%%%%%%J%%%%%j%%%%j%J%J%J%%%%
3703Aj%j%j%%%%%J%%J%%%%%%%%J%J%%%%%%%j%j%%%j%%%%%%%%j%j%%JJ%%%%%j%jjj%%JJ%J%J%J%
3631@%%%%j%%%%%%%J%%%%%%%%j%%%%J%%j%%%%%%%%%j%%%J%%J%J%%%%%jj%%%J%J%%j%j%j%%j%%J
3559b%%J%%%%%%%%J%%%%%%%%j%%J%%%%%j%%%%Jj%j%%%%JJJJ%J%%Jj%j%j%j%%j%j%%%%%JJJJJ%%
3487CJ%j%%j%j%jj%%%%J%%%%J%%%%%%%%%%%J%%%%%%%%%%%%%j%J%%%%j%j%j%%j%%%%%j%%%%J%JJ
3414@J%J%j%jj%%%%%%%%%%%j%J%%J%%%j%%j%JJ%J%%%j%j%%%%%%J%%%%%%%%%j%%j%%%%JJJJ%Jj%
3342B%jj%%%J%%%%%j%%j%%J%J%%%%%j%j%%%J%%%J%%%%%%%%%%j%%j%%%%%%J%%J%%%%Jj%jj%jJ%J
3270@%%%%%%j%%J%%%J%%%%%%j%j%%%J%%%%%%%%%j%J%%%%%J%JJ%%%jj%j%J%j%%%%%%J%%%%j%j%%
3198aj%%J%JK%J%%j%jj%jj%%J%%J%%%%%JJ%J%%%j%j%j%%%%%%%%%%%%%%JJ%%j%jjj%%%J%JJ%J%%
3125B%%%%%j%%%jJ%%J%%j%%j%j%j%%J%%%%%%%%J%JJ%%%j%j%j%%J%JJ%%j%j%j%%j%%%%J%J%%%%%
3053@%%%%%%%j%%%%J%JJJJ%j%%%j%%%j%%%j%%%%%%%%%%%j%%J%%J%J%j%%%%%%j%%%%J%%%%%%%%%
2981A%%j%%%%J%%%%%%%%%j%j%j%%%%J%J%%%Jj%J%%%%%j%j%%%%%%%Jj%%j%J%%J%%%%%%%%j%%%%%
2909a%j%j%j%%%JJJJJJJ%%%j%%%j%%%j%%%%J%%%%%%%%%%%%%%%%%J%%%j%j%%%%%%%j%%%J%%%%%%
2836@%%%%%j%j%%%%%J%%%j%%%%JJJJ%%%j%j%j%%%%J%JJJJ%%Jj%kjjjj%J%%%%%%%%%J%J%j%j%%%
2764aJJ%JJ%jjjj%%%%J%%%%j%%%%%%J%%j%%%%%%%%%%%J%%J%%%%j%%j%%J%J%%%%%%%%J%%%%%jjj
2692aj%j%JJJJ%%%%%jj%j%%JJJ%J%%j%j%%%%%%%%%%%%%%J%j%J%%%%j%jj%%J%J%J%%%%j%J%J%%%
2619Bj%j%%%%%j%%%J%JJ%%%j%j%%%J%%j%j%%j%J%%%J%J%%%j%%%%%%J%%J%%%%j%%j%%jj%%j%%%j
2547d%%%JJ%JJJ%Jj%%j%%Jj%%j%%%J%J%J%%%%%%%%j%j%j%%%%%%%J%%%%%j%%%%j%%J%JJ%Jj%j%j
2475aj%%j%J%%J%J%%j%%J%%J%%%%%%%%%%j%%%%%%%%%J%%%j%%%%%%%%%%%j%%%%%%%%%%%%%J%%%%
2403@j%%j%%J%J%J%%%%%%j%%J%J%%%j%j%%%J%J%j%%%%J%J%%%%j%j%j%%j%%%J%J%j%jj%%jJ%%%J
2330a%%%%%%%%%%J%J%%j%j%j%%%%J%%%%%j%%%%J%%j%j%%%J%JJ%%%j%j%jJ%%JJ%%%j%%%%JJ%J%%
2258B%%j%j%%%%%%J%%J%%%%%%%%%%%%%J%%jjjj%%%%%Jj%%J%%%J%%j%%%%%%%%%%j%J%%%J%%%J%%
2186B%%j%%%%%%%JJ%J%%%%j%jjj%j%%%%%J%%%j%%%%%%%%%%J%%%%%%j%%%%J%%%%%%%%%%%%%jj%%
2114bJJJJ%J%%%%j%j%j%j%%%%%%%%%%J%%JJ%J%%j%%%j%%%%%%%%%j%%JJJ%%%jjj%jj%%%%%J%%%j
2041b%%%%%%%J%J%J%J%%%j%j%%j%%j%j%%%%JJ%J%%%%JJ%%%%j%jjj%%JJJ%%%jjjj%%J%JJ%J%%j%
1969@j%j%%%%%JJ%J%j%%%%%J%J%j%jj%%%J%%%j%%j%%J%%J%%%jj%jJ%%JJ%J%%%j%%j%%%%%JJ%%J
1897B%%%j%%%%%%%%%%j%j%%J%J%%%%%%%%J%%J%%j%jj%%%%J%J%j%%%%%%%%j%j%j%%%J%J%%J%%%%
1825A%%J%%%j%%%%%j%%%%%%%%J%%%%j%%j%%%%J%%%%%%%%%%%%%%%%%%%%%J%%%j%%J%%%%%%J%%JJ
1752D%%j%j%j%%J%%J%j%%j%%j%%j%%%%%%%%J%JJ%J%%j%j%j%%%%%%%%j%j%%%J%%J%J%%j%j%%%%%
1680a%%J%JJ%%%jj%%%%%J%%J%%%%%jj%j%j%%%%J%%%%j%%%%%%%J%J%JJ%%%jj%jj%%%%J%%J%J%%%
1608A%Jj%J%%J%jjjjkjj%%JJJJJ%j%j%%%%%%J%J%%%%%%%%%%%%%%%%%%%%%%J%%%%%JJJ%%%%jj%j
1535Ajj%j%J%%%%%j%%J%JJ%%%%%%%j%%%%j%%j%j%%%%J%J%J%%%j%jJ%%J%%%%%J%%%%%j%%%%%J%%
1463AJ%%%%%%%j%%%j%%J%%%%%%j%%%j%%J%%J%%%jJJ%%%%%%j%%%%%%%%J%%%%jjkjjj%J%JJJ%%%%
1391aJ%%J%J%%%j%j%%J%%%%%%%%%%j%%%%%J%%%%%J%J%%%j%J%%j%j%j%%%%%j%j%j%%%%%J%J%%j%
1319b%j%%%J%%%%%%%J%J%J%%%jjj%j%%%%J%%J%J%J%%j%j%%%%%jJ%J%J%%%%j%%J%J%%%JJ%%%jj%
1246B%%%%%%%%Jj%%j%%%%%J%%%%%%j%%j%%%j%%jJJ%JJ%%%%%%%J%%%%j%%j%j%%%J%%%%%j%j%%j%
1174b%J%JJ%J%j%j%%%J%J%J%%%%j%j%j%j%%%j%%%%J%JJ%%%%j%jj%%J%J%%J%%%%%%%j%%%j%j%%%
1102b%J%JJJ%%jkj%j%%J%%%J%J%JJ%%j%%j%%j%%%%J%JJ%%%%jJ%%J%%%%%jjjjj%J%%%JJ%J%Jj%j
1030Ajj%%%%J%J%J%%J%%J%j%j%j%%%%J%%%%%%%%%%%J%%%j%j%%J%%%%jjj%j%J%J%%%j%j%%J%J%%
957@J%J%%j%%j%%%j%j%%J%J%%%j%%j%%J%%J%%%%j%%%J%%J%j%%%J%%%j%%%%%%%%%%%%J%%%j%j%j
884b%%%%JJ%%%%j%jjj%JJJ%J%%%%JJJJ%%j%jj%jj%j%j%J%J%%%%%%%%J%%%JJ%J%%%%j%j%j%%%%%
811@J%%J%J%%%j%%%j%j%%j%Jj%%%%%%j%%%%%JJJ%%%%%%%%%j%%j%j%J%JJJ%%%%%%j%J%%J%%jjjj
738aj%%%J%%j%%%%J%J%J%%%j%%%%%%%%J%j%%%%%%%j%j%%%JJ%JJJ%J%j%%jjj%jj%%j%%%%%J%JJJ
664AJ%%%%%j%%j%%%j%J%%%J%%%%%%%%%%%%jj%jj%%%J%%J%%%%JJ%J%j%jj%%%%%%%%%%J%%%J%%%%
591A%%%%%%j%j%%%%%%%%%%jJ%%%J%%%%%%%%%J%%J%%%%j%%j%%%%J%J%%%%%%j%j%%%J%%%%%j%%J%
518A%%%%jjj%j%J%JJ%JJ%%%%%%%j%%%%%%J%j%%%%%%%j%%%%J%%Jj%%j%j%%%JJJ%J%jjjjj%j%J%J
445aJJJ%Jj%j%j%%J%%%%%%%jj%j%%%%%%%%%%%%%%%J%%%%J%%%j%%%%%%%%%%%J%JJ%%%j%j%%%j%j
371b%%%%J%J%J%%%%%%j%j%%%%JJ%J%%%J%JJJJ%%%%%J%j%jkjj%j%%%%%JJ%%%%jj%%%%%j%%J%%%J
298B%%J%%%j%%j%%%%%%%%%%j%j%%%%J%%J%J%J%%%%%j%jj%%%%J%J%%%jjjjj%J%JJ%%%%%j%%%%J%
225@%%%%%J%%%%jj%j%%%%%%%%%%J%J%J%%%j%%%%%%J%%J%%%%%jjjj%%J%%%%%%%%%%%J%J%%%%jjj
152bj%%%J%J%%%%%%%%%%%%%%J%%%%j%%j%%j%J%J%J%%%%%%%%%%%J%%J%%%%%%%%JJ%Jjjjkjj%%J%
79a%%%J%%%%%%%%%%J%j%%%%%%%%j%%jJ%%JJ%J%%%j%%%%%%J%j%j%%%%%J%%%%%%%%%jJ%%%J%%%jj
4@jj%%%J%J%%%%%%%JJ%%Jj%j%%j%jj%%%JJJ%J%%%j%jj%%%J%%j%jj%%%J%%J%J%%%%%j%j%%%j%%%
-71cJJ%%%%%%%%%%%%%%J%%J%%%J%%%%j%%%%%%%%%%%%%%%%%%%%%j%%%%%JJ%%%%%%%%jj%j%j%J%J
-144@%JJ%%%j%j%j%%%jJ%%%%%%%%%J%J%%%%%jj%j%J%J%%%J%%%%J%%jj%jj%j%%%%J%J%%J%%Jj%%
-216@%JJ%%%%%j%j%%j%%%%JJ%J%%j%%j%j%%%J%J%%%j%J%%Jj%j%j%%%%%%%%j%%J%%%%%%%%%JJ%%
-289A%%j%%%%%%J%%J%%%j%j%j%%j%%J%JJ%J%%j%jjj%%%%%%%jJ%%J%%Jj%%%%J%%%%%%%j%%J%%JJ
-361B%%%%j%jj%j%%%J%%%%%%%JJ%J%J%%%%j%j%%j%%%%%%%j%%%%%%%%%%j%%%%j%J%JJ%J%%%j%%j
-433a%%j%%J%JJ%%jj%j%%JJJJ%%%j%j%%%%%%%J%%%Jj%%j%%j%%%j%j%jj%%%J%JJJJ%%%%j%j%%%%
-505bJ%J%J%J%J%%j%%%%%%%%j%%%%%J%%%%%%j%j%%%%%%J%J%%%%%j%j%j%%%%%%%j%J%J%%J%%%%%
-578A%%%%%j%jj%%%JJ%JJ%J%%j%j%j%%%%%J%%j%jj%%J%J%%j%j%%%%J%J%%J%%J%j%%%j%%%j%%%%
-650a%%%j%%j%J%J%%%%%%%J%J%J%%%%%%%%%j%%%J%J%Jj%jjj%%%%%%%%j%%%%%J%J%JJ%%%%jj%jj
-722a%j%%JJ%J%j%%%%%%%%%%%%%j%%j%J%J%%%%J%%%%j%J%%j%jj%J%JJ%%%%%%%%j%%jj%jj%J%J%
-794bJ%J%JJ%%%j%j%j%%J%%%%%%%%%%%%%%%J%%%j%%J%J%J%%%%%%j%%%%j%%%%j%%%J%J%%%%%j%%
-867A%J%%%j%j%%%J%%J%%%%j%jj%%j%%%%%j%%%%J%J%J%%j%%%%%%%%%%%%%%%%J%%J%%%%%j%J%%j
-939@%%%%%J%J%%%%%%%%J%%j%j%jJ%%%j%%%%%%%%%j%%j%J%J%J%%j%j%%%%%%%J%%%%%%%J%%j%%%
-1011@%%%J%%%%%%j%%j%%%%%%%j%J%%J%%%%j%%J%%%%%%%%%%%%j%j%%%%J%JJ%%%%%j%%J%%%%j%%
-1083@j%%%%%%J%%J%%%%%%%j%%j%%%%%%%%%J%J%%%%%%%%%%%%J%J%jj%j%%%%%%%%j%%%%%%%%J%%
-1154@%%%j%%%%%J%j%%%J%%%%%%%%%%%%%%%JJ%J%j%jjj%%%J%JJ%%J%%%%%%%%%%%%%%%%%jjjj%%
-1225a%%%%J%%J%J%%%%%%j%j%%%%%%%%%j%%%%%%J%J%%%j%j%J%%J%%Jj%%j%%jJ%%%J%%%j%%j%%%
-1296a%%%%%%%j%%J%JJ%%%jj%%%%JJJJ%J%jjj%j%%%%%%%%%%%J%%%%%%%%%%jj%j%%%%J%JJ%J%%%
-1368B%%j%j%jjj%%%J%J%%J%%j%j%%%%%%%%%%%%%%%J%%%%J%%%J%%%J%%%%%%%%%%%j%j%%%%JJ%%
-1439B%%%%j%jjj%j%J%JJ%%%%%%%%%%%%%%%%%%j%%%%%J%j%j%j%%JJ%J%j%%%%%%%%J%J%%%%j%%%
-1510@Jj%%%%%J%%%%j%j%%%%%%J%J%%%%%%%%%%%%%%%%j%%%%%%%%%%%%J%%J%j%j%%%%J%%j%%%%%
-1582@%%%%%%%%J%%%%j%j%%%%%%%%J%%%%%J%%%%%%j%%%j%%J%%J%%J%%%j%%%J%Jj%%jj%%%%J%J%
-1653B%%j%%j%J%%j%j%j%%%J%J%%%J%%%%J%j%j%j%j%%%%J%JJJ%%%%j%j%%%%%%%J%%%%%%%%%%%%
-1724Aj%%%%j%%%%J%%%%%%%%j%%%%j%%J%J%J%%%j%%j%%%%%%J%%j%%%%%J%%J%%%%%jj%j%J%J%J%
-1796A%jj%%j%%%%%%jj%%J%JJJ%%%%%%%%JJ%J%Jj%%j%%%%%%%j%%j%%%J%J%%jjj%%%%%J%%%jjj%
-1867c%JJJK%J%j%jjj%j%%J%J%%%j%%%%%%%J%%%j%j%%%J%%%%%j%%%JJJJJJ%%%%j%j%jj%j%%%J%
-1938@%%%%%%j%%%%J%J%%%%%%%%%%%%%jjjjj%J%JJ%%%%%%%%%%%%%%j%%%%%%%%%%%%J%J%%%%%%%
-2010@%j%%%%%%%%%%%%J%J%%%%%j%j%jJ%%J%J%%%%%%%j%J%J%Jj%%j%%%%%%%%%j%%%%%%j%%%%%J
-2081@%J%%%%%j%jj%%JJJ%Jj%jj%j%%%%J%%J%%%J%%%%J%%%%%%%j%%%%%%%%%%j%%%%J%JJ%%%jj%
-2152Ajj%j%%%%%%J%%J%J%%%%%%j%%%%Jj%%j%%%%%%%%%%%%J%%%%%%j%%%%%%J%J%%%%%%%%J%%%j
-2223AJ%%J%J%%j%jj%%%%j%%%%%j%j%%%J%%J%J%%%%%j%j%%%%J%JJ%%j%j%%j%j%%J%JJ%%%jj%%%
-2295a%%j%J%J%J%%%%%%%%J%%j%j%j%%%J%J%%%%%%%j%%%%%%J%%J%%%%%%%%j%%%j%%%j%%%%J%JJ
-2366B%%j%jjj%%%%%%J%j%%%%J%JJ%%%j%jj%%%JJ%%J%%%%%%J%J%J%j%jj%%%%%%%j%j%%%J%%J%%
-2437Aj%%%%j%%J%%Jj%jj%%%%J%J%J%%J%%%%%j%%%%%%j%%j%%%%%J%%%%%%%%%%j%%%%%%%%%J%J%
-2509A%%%%j%%%%%%j%%%%J%%%%%%%%%%JJ%%%%%%j%%jj%%%%J%J%%%jj%%J%J%j%%j%%j%%%%J%%%J
-2580@J%J%%j%j%%j%J%%%%%%j%%j%%%J%%J%%%%%j%%%%%%%%%%%%J%%%%%%%j%%%J%%Jj%%j%%%%%J
-2651@%J%%j%%%%%%%J%%J%%J%j%%%%j%%%%%%%%%%j%j%J%%%%%%%%%%j%%jJ%%J%%J%j%%j%%%%%J%
-2723@J%%%%%j%J%J%%%j%jj%%JJJJ%%jjjjj%%%%JJ%J%%j%jj%%%J%%J%%%%%%%jj%j%%%%%J%%%%%
-2794bJ%%j%%%%%%%%J%%J%J%%%%%%%JJ%J%%%j%j%%%%%%%j%%j%%j%%%%%%%%%%%%%%%%%%%J%%%%%
-2865@j%%%%%J%%%%%%j%j%%%%JJ%JJ%%%%j%%j%j%%%%J%%%j%%%%%Jj%%j%%%J%%%J%%%J%%%%%%%%
-2936A%%J%Jj%jj%j%%%%JJ%%%%j%j%%%%JJJJ%%%j%%j%%j%%%%%%%%%j%%j%%%%%%%J%JJ%J%%%jJ%
-3008B%%J%%%jj%j%%%%J%%J%%J%j%%j%%j%%j%%%j%%%j%%J%%J%%%%jj%jJ%%J%J%%%%J%%%%%J%%%
-3079A%j%j%j%%JJ%Jj%%j%j%%%%%%%%J%%%%%%J%J%JJ%J%j%jjj%%%%J%J%%%%%%j%%%%%%%%%J%%j
-3150A%%j%j%%%%JJ%J%%j%jj%%%%%%%%%%J%J%%%jj%%%%%%%%%%%%%%%%%%jJj%%%%J%%%%%%j%%J%
-3222aJ%%%j%%%%%J%%%%%%%%J%%%%j%%J%%J%j%%%%%%%%%%%%%%%%j%%%%J%J%%%%%jj%j%%J%%%%j
-3293a%%J%J%J%j%j%j%j%%%%%J%%%%%J%%J%j%%%%%%%%%j%j%j%j%%%%J%JJ%J%%%j%%%%%%%%%%%%
-3364a%%J%%%%%%%%j%%%J%%%%%j%%%%%%J%J%J%%%j%j%j%%%%%%%J%J%j%j%j%J%%%%J%%%j%%%%%J
-3436@%JJ%%%%j%%%%%J%%%j%j%j%J%%J%J%%%%%j%j%%%j%%%%%%J%J%%%%j%j%%%J%%%%j%%%%%%%%
-3507aJ%j%%%J%JJ%J%j%j%j%%%%%%%%%%%j%%%%%%%%J%J%J%%jjjjj%%%%%J%%%%%J%%%%%%%JJJ%J
-3578C%%%%jjj%j%%%%%%%j%%j%%%%J%JJ%J%%%j%j%%%%%%J%%J%J%J%%%%%%%j%%j%%j%%%J%J%%%%
-3650Bj%%%%%%%%%%%%j%j%%jJ%%%%%%J%J%J%j%jj%%%J%JJ%%%%%%%%%%%j%jj%%%%J%J%%%%%j%%j
-3721a%%%%J%%%%J%%%%j%%%%%%%%jj%j%J%JJ%%%jJ%%%%%%%%%J%j%%j%j%J%%%%%%%%%%J%J%J%Jj
-3792B%j%j%%%J%%%%%%j%j%%%%%J%%%J%J%%%j%jjj%J%JJ%%%j%j%%jJ%%J%J%%%J%JJ%jjjjjj%JJ
-3863@%%%J%%%%j%j%j%J%%%J%J%%%%%%%%%%jjjj%j%%%JJJJJJ%j%jjj%%%%%%%J%%J%%%J%%%j%%%
-3935@j%J%j%jjjJ%JKJJ%%%j%J%%J%j%j%%%%%%%%%%j%%%%%%j%%%%%J%J%%%%J%%j%%j%j%%%%%%%
-4006aJ%J%J%j%jj%%%%%%%J%%%%j%%%JJJ%J%%%j%%%%j%j%%%%J%%%%%%%%J%%%%%%%J%%%%jj%j%%
-4077@%%%J%j%%%%%%%%%%j%%%%J%%%%j%j%J%J%JJ%%jj%%%%%%%J%j%%%%%%j%%%%%%J%J%%%%%%%j
-4149@j%%%%%%j%j%%J%%J%J%%%%%%J%%j%%j%%J%J%J%j%jj%j%%%%J%%%%%%%J%%%j%%%J%%%%%%%J
-4220A%%J%%J%j%j%jj%%j%J%J%J%%%%%jjj%jJ%J%JJ%%j%jj%jJ%J%J%%%%j%%%%%%%J%%%%J%j%jj
-4291b%j%%j%J%%J%JJ%%J%%%%%%%%%J%%J%J%J%%j%jjj%%%%%Jj%jjj%%%%%%J%%J%%JJ%J%j%%%j%
-4363A%%jj%%%%JJ%J%Jj%jj%jJ%%%%%j%%j%J%%%%%%%%j%%%j%%%%J%J%%%%%%%%%%%J%%%%%%%%%%
-4434@%%%%J%%%%jjj%%%%JJJ%J%%j%%j%%%%%J%%j%%%%j%%j%%J%%%%%%j%%%%%%%J%%%%%%%J%%%%
-4505@J%%j%%%%%%%j%%j%%%J%%%%j%j%%JJJJ%J%%%%%%j%%%%%%%jj%%%%%%%%%%%%%J%J%J%j%%j%
-4576@%%%%%%%%J%%%j%%%%%%j%%%%%J%J%%jj%j%%%JJJ%J%J%j%j%%%%J%%%%j%%%jjj%%%%%%%%%%
-4648b%J%%%%%%j%J%JJ%%%%%%%%J%%%%j%j%%%j%%J%J%J%%J%%%%%J%%%%j%j%jj%j%%%%%%%%JJJ%
-4719B%%%jjj%j%j%%%JJJJ%%%j%jj%%%J%J%%j%j%%J%J%%%j%j%%%%jj%JJJJJ%%%%j%j%J%J%%J%j
-4790A%%%%J%%%j%j%%%%JJ%J%%%jjjj%%%%%J%%%jj%%%J%%%%%%%%%%%%j%%%%JJJ%J%%%j%%%j%j%
-4862a%%%JJ%J%%%%%j%J%%J%jjj%jj%%J%JJ%%%j%%%%J%%J%j%j%%J%J%%%%jj%%J%%%%%%%%j%%%%
-4933@%%%%%j%%j%%%%%J%J%J%%%%%%%%%%j%JjJ%%%%%%j%j%j%%jj%j%%%JJJJJ%J%%%%%%j%j%j%%
-5004b%%%J%j%%j%J%%%J%%%J%%%%%%%%%j%%%%%%%%J%%%%j%%j%%jJ%%%%%%%%%%%%J%J%%%%%%%%j
-5076aJ%%J%%%J%%%%%%j%%j%j%%J%J%%%%j%%%%%J%j%%%%%j%j%%%%JJJ%J%%%jj%jjj%%%J%JJ%JJ
-5147B%%%%%%jjj%j%%%%%J%%%J%%%j%%%%%%%%J%%J%%%%j%%%%%JJ%J%%%%j%j%j%%%J%%j%j%%%J%
-5218@%J%%%j%%j%%%%%J%J%%%j%%j%j%j%%J%JJ%%%%jJ%%J%%%%j%%%JJJ%Jj%j%%J%J%%%jj%%j%%
-5289A%%%%%JJ%%j%j%J%J%J%jjj
-5311A $$ checkpoint
##END=
##TITLE=Peak list
##JCAMP-DX=5.01
##ORIGIN=UNKNOWN
##OWNER=UNKNOWN
##DATA TYPE=NMR PEAK TABLE
##DATA CLASS=PEAK TABLE
##BLOCK_ID=3
##CROSS REFERENCE=NMR SPECTRUM:BLOCK_ID=2
##DATE=22/03/03
##TIME=15:04:48
##TEMPERATURE=25
##LONG DATE=2022/03/03 15:04:48 
##.OBSERVE FREQUENCY=500
##.OBSERVE NUCLEUS=1H
##.SOLVENT NAME=CDCl3
##NPOINTS=89
##XUNITS=PPM
##YUNITS=ARBITRARY UNITS
##PEAK TABLE=(XY..XY)
(0.88, 247294.4240000001)
(0.89, 624076.3466666669)
(0.9, 318045.32533333346)
(0.88, 247294.4240000001)
(0.89, 624076.3466666669)
(0.9, 318045.32533333346)
(0.88, 247294.4240000001)
(0.89, 624076.3466666669)
(0.9, 318045.32533333346)
(1.22, 40798.57400000001)
(1.23, 49934.451000000015)
(1.26, 417163.3333333335)
(1.22, 40798.57400000001)
(1.23, 49934.451000000015)
(1.26, 417163.3333333335)
(1.22, 40798.57400000001)
(1.23, 49934.451000000015)
(1.26, 417163.3333333335)
(1.22, 40798.57400000001)
(1.23, 49934.451000000015)
(1.26, 417163.3333333335)
(1.22, 40798.57400000001)
(1.23, 49934.451000000015)
(1.26, 417163.3333333335)
(1.22, 40798.57400000001)
(1.23, 49934.451000000015)
(1.26, 417163.3333333335)
(1.22, 40798.57400000001)
(1.23, 49934.451000000015)
(1.26, 417163.3333333335)
(1.22, 40798.57400000001)
(1.23, 49934.451000000015)
(1.26, 417163.3333333335)
(1.22, 40798.57400000001)
(1.23, 49934.451000000015)
(1.26, 417163.3333333335)
(1.22, 40798.57400000001)
(1.23, 49934.451000000015)
(1.26, 417163.3333333335)
(1.22, 40798.57400000001)
(1.23, 49934.451000000015)
(1.26, 417163.3333333335)
(1.22, 40798.57400000001)
(1.23, 49934.451000000015)
(1.26, 417163.3333333335)
(1.22, 40798.57400000001)
(1.23, 49934.451000000015)
(1.26, 417163.3333333335)
(1.22, 40798.57400000001)
(1.23, 49934.451000000015)
(1.26, 417163.3333333335)
(1.22, 40798.57400000001)
(1.23, 49934.451000000015)
(1.26, 417163.3333333335)
(1.22, 40798.57400000001)
(1.23, 49934.451000000015)
(1.26, 417163.3333333335)
(1.22, 40798.57400000001)
(1.23, 49934.451000000015)
(1.26, 417163.3333333335)
(1.22, 40798.57400000001)
(1.23, 49934.451000000015)
(1.26, 417163.3333333335)
(1.22, 40798.57400000001)
(1.23, 49934.451000000015)
(1.26, 417163.3333333335)
(1.22, 40798.57400000001)
(1.23, 49934.451000000015)
(1.26, 417163.3333333335)
(1.22, 40798.57400000001)
(1.23, 49934.451000000015)
(1.26, 417163.3333333335)
(1.22, 40798.57400000001)
(1.23, 49934.451000000015)
(1.26, 417163.3333333335)
(1.22, 40798.57400000001)
(1.23, 49934.451000000015)
(1.26, 417163.3333333335)
(1.22, 40798.57400000001)
(1.23, 49934.451000000015)
(1.26, 417163.3333333335)
(1.64, 276328.9920000001)
(1.64, 276328.9920000001)
(2.34, 349916.60400000017)
(2.36, 589201.4920000002)
(2.37, 373945.2120000002)
(2.34, 349916.60400000017)
(2.36, 589201.4920000002)
(2.37, 373945.2120000002)
##END=
##TITLE=Assignments
##JCAMP-DX=5.01
##ORIGIN=UNKNOWN
##OWNER=UNKNOWN
##DATA TYPE=NMR PEAK ASSIGNMENTS
##DATA CLASS=PEAK ASSIGNMENTS
##BLOCK_ID=4
##CROSS REFERENCE=STRUCTURE:BLOCK_ID=1
##DATE=22/03/03
##TIME=15:04:48
##SAMPLE DESCRIPTION=Palmitic acid
##TEMPERATURE=25
##LONG DATE=2022/03/03 15:04:48 
##SOURCE REFERENCE=HMDB0000220
##.OBSERVE FREQUENCY=500
##.OBSERVE NUCLEUS=1H
##.SOLVENT NAME=CDCl3
##NPOINTS=89
##XUNITS=PPM
##PEAK ASSIGNMENTS=(XMA)
(0.89, <t>, <19>)
(0.89, <t>, <19>)
(0.89, <t>, <19>)
(0.89, <t>, <20>)
(0.89, <t>, <20>)
(0.89, <t>, <20>)
(0.89, <t>, <21>)
(0.89, <t>, <21>)
(0.89, <t>, <21>)
(1.26, <m>, <22>)
(1.26, <m>, <22>)
(1.26, <m>, <22>)
(1.26, <m>, <23>)
(1.26, <m>, <23>)
(1.26, <m>, <23>)
(1.26, <m>, <24>)
(1.26, <m>, <24>)
(1.26, <m>, <24>)
(1.26, <m>, <25>)
(1.26, <m>, <25>)
(1.26, <m>, <25>)
(1.26, <m>, <26>)
(1.26, <m>, <26>)
(1.26, <m>, <26>)
(1.26, <m>, <27>)
(1.26, <m>, <27>)
(1.26, <m>, <27>)
(1.26, <m>, <28>)
(1.26, <m>, <28>)
(1.26, <m>, <28>)
(1.26, <m>, <29>)
(1.26, <m>, <29>)
(1.26, <m>, <29>)
(1.26, <m>, <30>)
(1.26, <m>, <30>)
(1.26, <m>, <30>)
(1.26, <m>, <31>)
(1.26, <m>, <31>)
(1.26, <m>, <31>)
(1.26, <m>, <32>)
(1.26, <m>, <32>)
(1.26, <m>, <32>)
(1.26, <m>, <33>)
(1.26, <m>, <33>)
(1.26, <m>, <33>)
(1.26, <m>, <34>)
(1.26, <m>, <34>)
(1.26, <m>, <34>)
(1.26, <m>, <35>)
(1.26, <m>, <35>)
(1.26, <m>, <35>)
(1.26, <m>, <36>)
(1.26, <m>, <36>)
(1.26, <m>, <36>)
(1.26, <m>, <37>)
(1.26, <m>, <37>)
(1.26, <m>, <37>)
(1.26, <m>, <38>)
(1.26, <m>, <38>)
(1.26, <m>, <38>)
(1.26, <m>, <39>)
(1.26, <m>, <39>)
(1.26, <m>, <39>)
(1.26, <m>, <40>)
(1.26, <m>, <40>)
(1.26, <m>, <40>)
(1.26, <m>, <41>)
(1.26, <m>, <41>)
(1.26, <m>, <41>)
(1.26, <m>, <42>)
(1.26, <m>, <42>)
(1.26, <m>, <42>)
(1.26, <m>, <43>)
(1.26, <m>, <43>)
(1.26, <m>, <43>)
(1.26, <m>, <44>)
(1.26, <m>, <44>)
(1.26, <m>, <44>)
(1.26, <m>, <45>)
(1.26, <m>, <45>)
(1.26, <m>, <45>)
(1.64, <m>, <46>)
(1.64, <m>, <47>)
(2.36, <t>, <48>)
(2.36, <t>, <48>)
(2.36, <t>, <48>)
(2.36, <t>, <49>)
(2.36, <t>, <49>)
(2.36, <t>, <49>)
##END=
##END=
