##TITLE=HMDB0000228, Experimental spectrum with assignments
##JCAMP-DX=4.24
##ORIGIN=UNKNOWN
##OWNER=UNKNOWN
##DATA TYPE=LINK
##DATE=22/03/03
##TIME=15:04:52
##LONG DATE=2022/03/03 15:04:52 
##TITLE=Phenol
##JCAMP-CS=3.7
##ORIGIN=UNKNOWN
##OWNER=UNKNOWN
##DATE=22/03/03
##TIME=15:04:52
##BLOCK_ID=1
##CROSS REFERENCE=NMR PEAK ASSIGNMENTS:BLOCK_ID=4
##LONG DATE=2022/03/03 15:04:52 
##MOLFORM=C6 H6 O
##ATOMLIST=
1 O 0
2 C 0
3 C 0
4 C 0
5 C 0
6 C 0
7 C 0
8 H 0
9 H 0
10 H 0
11 H 0
12 H 0
13 H 0
##BONDLIST=
1 2 S
2 3 D
3 4 S
4 5 D
5 6 S
6 7 D
7 2 S
1 8 S
3 9 S
4 10 S
5 11 S
6 12 S
7 13 S
##$MOLFILE=
     RDKit          3D

 13 13  0  0  0  0  0  0  0  0999 V2000
    2.4441   -0.3295    0.1312 O   0  0  0  0  0  0  0  0  0  0  0  0
    1.0633   -0.1608    0.0955 C   0  0  0  0  0  0  0  0  0  0  0  0
    0.2473   -1.2734    0.0495 C   0  0  0  0  0  0  0  0  0  0  0  0
   -1.1157   -1.0413    0.0156 C   0  0  0  0  0  0  0  0  0  0  0  0
   -1.6306    0.2503    0.0275 C   0  0  0  0  0  0  0  0  0  0  0  0
   -0.7851    1.3303    0.0738 C   0  0  0  0  0  0  0  0  0  0  0  0
    0.5684    1.1212    0.1079 C   0  0  0  0  0  0  0  0  0  0  0  0
    2.9735   -0.3727   -0.7472 H   0  0  0  0  0  0  0  0  0  0  0  0
    0.6793   -2.2686    0.0412 H   0  0  0  0  0  0  0  0  0  0  0  0
   -1.7519   -1.9006   -0.0202 H   0  0  0  0  0  0  0  0  0  0  0  0
   -2.7116    0.3325   -0.0014 H   0  0  0  0  0  0  0  0  0  0  0  0
   -1.2115    2.3191    0.0820 H   0  0  0  0  0  0  0  0  0  0  0  0
    1.2306    1.9933    0.1446 H   0  0  0  0  0  0  0  0  0  0  0  0
  1  2  1  0
  2  3  2  0
  3  4  1  0
  4  5  2  0
  5  6  1  0
  6  7  2  0
  7  2  1  0
  1  8  1  0
  3  9  1  0
  4 10  1  0
  5 11  1  0
  6 12  1  0
  7 13  1  0
M  END

##END=
##TITLE=Spectrum
##JCAMP-DX=5.01
##ORIGIN=UNKNOWN
##OWNER=UNKNOWN
##DATA TYPE=NMR SPECTRUM
##BLOCK_ID=2
##CROSS REFERENCE=NMR PEAK TABLE:BLOCK_ID=3
##DATE=22/03/03
##TIME=15:04:52
##TEMPERATURE=25
##LONG DATE=2022/03/03 15:04:52 
##.OBSERVE FREQUENCY=600
##.OBSERVE NUCLEUS=1H
##.SOLVENT NAME=H2O
##.SHIFT REFERENCE=INTERNAL,DSS,59200.00,0
##XUNITS=PPM
##FIRSTX=10.85125
##LASTX=-1.161194
##MINX=-1.161194
##MAXX=10.85125
##XFACTOR=0.00018000000000029104
##NPOINTS=65536
##YUNITS=ARBITRARY UNITS
##FIRSTY=-70.7249
##LASTY=-61.969969999999996
##MINY=-5336.001
##MAXY=87445.74
##YFACTOR=2.668713644825587
##XYDATA=(X++(Y..Y)), XYDATA $$ DIF
60285b7ONjnn%OOLjj%JMMLjmokLMKjjJK%kJNNkplLOKllKKkqojLMJKLL%lmmkJMLjmmJLKjKOOJmn
60210cjMK%kljjLNLjmljkkkJ%knlLPMjkjJJJKLKJjjlllkJKKMNNJkmlJJ%klk%%jlkLNMKJLKnj1
60137fj1mMNJjMQQJnlLQNkqj0pm%NOMJkk%%lopmjKLNNJmo%OOJmkKN%mm%ONLlmlKNMjomJMKJLMK
60064A0nrnJLK%JMNKkmnlkjjjjJK%kjKOPMjmpm%MKmokPRNmplLNLJkmpokJ%j%NQPKlkLNMjmkJKj
59989HmnmjKMNLmqoJONjnjMNLjk%%KLLLJjmmm%LLJlmjKKjllmk%JLMKmolKOOJlljJ%kj%%JJLL%m
59914@pqpkMQQMKLPNJnqpnlKQOjpo%ONKJKJkl%NNK%%joqmNPLmok%Jjkk%JMNKlkJK%llLNKjk%LL
59839A3jjj%%%JjnpmLOOLLjnrqjOPMjk%MNMlj0j1nMRNlplNRNkokJMKKKJkoqmJNMJ%jj%jkjkjJL
59766AONJmojLL%ljJjmojNKpj0mNPjpoKOOLMMKkk%LL%jjj%JL%mmJPOJmkJjlmJLJnn%LKkl%KLLN
59692INKknmlnnkJMONN%oj0kRJ3Qkom%KKKLL%lmmjJ%lnonmmjJNMJ%KPPKkllmmjMMjnlKNL%jjkn
59619dn%NM%mljjJKKjmlJOLjkLNL%jLNKjnpnmKPPKoj0oKOLmp%J2J6Qmj1qljkKQQjj1j2lNMJMPP
59549A5%l%NJj0j7rLRO%llj%MOPKklkjkklkklllkkKNNjqqkON%nkPJ2Q%l%NMkojOO%onJLlm%PQK
59478A6kJONlon%%mn%NN%lmkJK%oqojKjjMQNoj3qMJ0P%k%%k%PJ0NmrojJKLNN%mm%LJkopm%%klk
59407a9MOJmnLJ1J3Ojmk%J%loj0qkNPNKJ%%JJ%j%LM%l%LMjpmORMklLMjoo%K%mkJJlnl%KMRJ0Mn
59337B0j0mNJ0OkolJJknml%J%kl%KLkrj3rJJ0J2PK%jknlJOPNL%lmlLNJoj0oLONj%KPMkpoKJ1J1
59270B7Kj2k0j4%J0RLll%KLLLlpqnJNOLkooJONjmkOROjkjmj1j4r%PMJkJKK%%jjjMPMkqpjLLKMO
59202aMkolMPNjnprojPJ1RKlm%jlljLNMKjkk%JMMLJjJJJknl%LMJkmmnmkJ%mmkMM%ppnj%KOJ0QK
59129Aml%MNL%lkJKJkl%KKkonk%JMOMjljORPMKjprnNQMnrolmm%MOLLMKklljmppKROmrnLPMjjMQ
59054IN%prmJMJnqkNJ1RLlml%%JKMPOJrj4j2nNPMknk%%j%OJ1QlroKPMjlkmqj0mMPMKKNMLLJjnp
58983@jNMjmmklmkJKJjJLMJjk%LMMjqj2oOJ5J1JoolkmkKOPMJKJJkpqojNQPLkpj0rlLPMjopmjJJ
58912b0kljOJ0RKmkLNMLLMKnrpjKLJjjjLML%lmjK%mqplMRRNJjJJjnmkjjJLOMJjj%knnmj%JJ%kk
58839iKOQLkjKM%ookK%mjNJ1PjpmKOMlqqpnkJNNKlmjLM%nolKQQMknlKMjppkMOjoqnk%JJJLNPPJ
58764almkJ%kjKNNNJlnmKNKnpjPOkpjONlroJLjlJNLj%NQMkllnrrJJ0J2N%kjnpjPRLmlJJmp%POk
58691FokPPJpm%Kkon%L%kkJONLkk%LNKlqqjOJ0Pkj0j0lNPKlmjLLKJ%%KNOMmj1j3pJMNLL%jjLNJ
58621Irj1nPJ2Nnrn%KKLOKmmKOKprJRNlqkNKnqkKKlmLQJ0RRMlj2j0jOO%mkJK%jkmpoKRPkj0qjO
58552a0PL%kknmkKL%m%OJ0NkmjLlj0r%RJ1MkljKKknpo%NNJjKKlj0j0JJ2J1LkJONjnlmprmNJ1Ok
58485bojMKknjOJ0RJnolkmon%MMMLJkpqnKNOM%lmjMNJlkLQPOKJmpmKKjolNOJolNJ2Q%pom%JJjk
58412HmnnqqjPJ2J1MjkjmookJJJKMPNknmJNKmpnJLNMMKlqqnlJNQRMjjJJkolJKklKONknljlnlMR
58339APL%knplNQMjkNRRN%orqkLKmplLMJlnmmlljj%NJ0Q%plOJ0Moj0nJLK%jlml%KJKMOOMJkopl
58266APJ3OmqlLJorpkjl%OJ0R%qj2q%NPLJ%kookNJ1P%ppjKLKJkkJNLkrnKRPkqpkJKJJLNMK%j%K
58195IJ%j%%lnmMQLoj1oMRMmojNNkpmKNMLNJ0Qkj1j1lMMnj0p%MNJjljKOOKlkLPLnj0qmkml%MPO
58126bLjllk%J%koo%QJ1Omo%PPjpolKKNNLknJPPJoolkjJMPQNMLkoro%LLKjknommmpol%JKORJ0L
58053EkmmkkJOP%noKPMmrmMQKpj1nLPN%kLRQKnlKKlrpMJ0Onj2oMQKprnJ%lkMJ0J1NKKKJkkJKJj
57982A5jjjkljLKjmlkKMOLmj0rlLMjmjMPMJJMLkj0j3qLQJ0OJJJJjlll%LMKjprrmj%%LNNK%jKLK
57912Bnqp%QJ1QKjllkkJPJ0OkpojJjkk%%mokLPOLjlnmjMMLJ%jnpnJNKnn%PNkqlNJ1RKoqqlMJ1
57842EJ2P%onljkljKMOM%kllnpqjOJ0P%lmkkll%KKjl%MNKnrmOJ3J4Omj1j1rolJLMLMNOL%lmmmm
57772fKQRNnro%LjljPJ2R%qrmKMLJLNJnj0rjPOkppkKjkJMOKkljkoj0pLRRLklmljMQQPLjlqqojj
57700a4%KOQJrj1kRJ0JpkRJ5QjonmookMNL%%%lpnkKL%kjKMOKnj0j2mNRNkljNNMMNNJll%LKkl%J
57631A1Jln%OPKmol%jmlLNJmkPJ1Nmql%krqjMLjmkJJkJMN%npkLLKKKJjklml%OOJprmNRN%JKM%j
57558CJKJornKM%kJQJ0MmpmJK%llll%LPN%nn%%jm%NQNlmjLLloo%JkmjNQMlmJPPKlnljkjJKKjkj
57483bJKK%jmokJNJnpmMRRM%klkllllLPRLkmkjmnmJMKMPRNoj2qJQLnrpjMNM%nqmKOMkkJOLkkJP
57409BNjnlKNKknkJJ%jJLMJjj%jllJPQKpj2pKQPJmk%JKKMONJklk%jkjkkmlkKLLKKLOM%mrrnLML
57335HjmmmmlJQJ0Mlrqnljjj%%JKKJKLMKkjLOMnj0nNRKpqjNLjjMPKormKLJj%JJjKRJ2QKkmmnoo
57262ajJKjjJLL%ll%OPMjllj%kmmoomKPQM%lnom%OOJljNNlj2qOJ4Oj0j7pOJ1MljPRLlnnmnkOJ2
57193DJ1Mnrqm%MOM%nplKPMlonJLjmkPJ0Onro%%lmJOROLJjj%%jmjLOjj1j4oQJ2MnqnmolMRKorK
57123b6J3J6J0Lkoj2j1mPJ2QK%J%npn%Jj%KMJllLRJ0NjlljjjjkkkKONJnnjLJkm%KJkppolLOM%n
57056hmJONL%%kmmjJJmprplLQJ1J0QONJmqpj%%jLPPL%kmnolKKjk%J%mljKjnlJNKkm%KPPOjnmMP
56982GJj1j5qMOLk%MNMKLJ%jMOLpj3j1lMNMLKjmokJLKj%%jlpqmLONJ%JKLKJLJ%ljKMKlkKNMjoq
56911hlMQOkpp%MMKjJLJ%%LL%klKMLkmjLMKkmmljNPN%pqqnljMNOKlnkKNMknnjjlnjMOKmm%LKJJ
56836fKMJ%%%lml%LLLLLJKLLkqj0mNNJl%NPJmnmjJLMKlmkLL%kjKNNMjnpnjkonKJ1J4Omj0pmlkm
56764a5jLON%pqJJ2J4Plpmj%jJKLKKjnj0nLJ0MorkOMklNQKonMJ0NmpjLJnoJOMjpommnlKOPNLML
56695A0KkjJLJnplKLkoojNOMK%JLK%ll%MJoj0o%LKKLMJll%%mqnKPQOMkprlOJ2RKj%%kkjJjmnkj
56623bnnlMNJmnjJKLLJlm%NQN%kJJjmnl%JjkkJJMOON%ll%JlpqlKNJ%kjj%MOKnqmOJ1QJmmljJJj
56548@mm%NNjnl%LJjjJK%kmnnkMQNJ%MJ0QJnlJNMjk%%Jkjk%knqpkMNJmomjkmmjLLJLOPMjkJLJk
56474C%NPKpro%MKklnnn%NRQLkmkLQO%nponkJNN%llJNKnqlKMLKJ%lplLQNjlKPPJoolLMJkmj%%%
56399AJKLL%klj%KKkopmjKKLQJ1Qmj3j4mQJ1NmplNPLnj0rmLQPJoo%PQLkl%KJj%MLjookjknpl%M
56329a6MKJKNN%mm%M%mlMP%pq%QOmpkLLmnJQJ0MjjKJlonkkmm%PJ0OjoojNQNkppjNN%llJL%%LM%
56256ImojLJmp%QJ2QMJknqol%%kmqqolKLKKLMORJ0R%rj2lNPJmljmqpJJ1J2Ojkjjklkkj%LK%mlJ
56186eML%l%LK%mmkLNKoj0oKPMJMJ0J0%roLRKppjNJnqjMMjlkJKjlooomkKMQRPLJjjll%LKlokOR
56114HKop%NLJ%%mqpKRJ0MjKMKmnlJ%mnm%JklljJML%l%QJ4Qoj6j2%ROknKONkqojKK%jjj%KK%lk
56042hKNLkm%KKllKMK%jLONKJKknnkMO%npmjLMLJJKLJjmnjKMKJkmnmnmlKNLkmKRJ1Kj0j3p%NLJ
55970eKMOMjqrnKMJjjjjlkJNM%lj%kmol%MPRMknjMNjnmJKjkjJJk%LOMMKkpj0nMRPJkKNMJlllk%
55896FJjlm%KK%%MONKjmml%%mpnNJ0NmqJRMpj4nQJ5J0Llmll%JkprnLRPMknnkKLkmjNNjrrjORMl
55824Bomj%jjLPLoj1qKJ1PjnjOO%nmJMJlkLPO%mmJKJjj%knojNLlpo%OPNLK%kjJjnqp%OOLjll%M
55751fQPMkoplKQOjpj0nJMLKKMMK%mmljJJKKLKjoqmJNLknkOJ2RjppkK%kkjkmkLPKklMQLkkKKkn
55678D%OOmj1rkKKJNPPK%JKJ%lmolJMKmqmKOOMJjlljjllj%mj1j1mPJ0MjJNOOPQO%qj0qnJNQNm
55609A1j2j2lPJ1NkonJQJ0OJklmlkKL%lmkkklJMK%jLNjqj1nJLjlmlnmNJ1J3LnojNNjpn%ONjmjN
55541eNjnkJ%prmLNKMJ1J3Nop%NJop%PNJkjmpoJPP%lkJK%mjMRP%nnjjlpkNQKnol%kkLQOmplMLk
55468bkLPKqj2nNPJmjNPMJj%JJ%kmljLNMJ%JKJmj0rkQQKmkMO%qrn%jkjMQNJll%jjjJJKjkjKLL%
55395D%%%jjJKjmlKN%qq%PNkkKPLmmJNKmolj%KQJ0N%jK%nro%%mqnKMMKJjlkKLLJJMNJkk%%jkKN
55320A0MknollljKMLKMNK%jJLJlmnmlJMPO%mmlkkj%jlm%NOKjk%%lpn%OQN%oppjMOL%kJJkprkOP
55246iLllkjjlkjKNPOLjKNNkrj0lNPMKNON%npnkKJlnkKJlnJRJ1LlkLLmj0pMJ0Olnl%jkjKNLjlq
55175brmLROlpmMNJk%MMjmkMLkoojJknkMJ0QKlmjJ%%JKmj0j2mNRMlkKQPMjkmmkLNLjmnnoojNQM
55102gkk%MMjmojNJ0RN%jjjmnmjKJ%lpolMPOjllJLKj%MQQLlpnKM%pro%NNKKLKK%kkjLON%mjJLj
55028A6lKPQMmpol%JjlnjNP%j1j5p%JjkJMKj%LJnj0nOJ4J1jqnMJ1J1Kmnk%JLOLlj2j1JJ1J1Jnm
54965H%krj0kQJ1MmmJKkppomjJNPNJjKOPN%k%KLJkkj%jjlmnlKONJljjlqnKJ2J2Nlnllllk%%%KK
54894B%%KOOKmqnmk%JLLLMLjljOQMknjJnj1j2nMPLkkllmjMQPKknnnm%MPPLjkJNMJ%KNLjoonmnj
54820eLPOJmm%NNMKJJJkmnjjlolJNJqj0nMOJlm%LKJ%jjkjJMONJmnlKOQNJKLOJpj1nMJ0Lqj2nOQ
54749IMnqnJPJ0Pjpql%lroJJ0J0OJjkljLMkqrlML%j%JjjKPQLnrroJNOJmkLRQLJJL%jJLKknlLJl
54677A6olKLkonKPMkomKJjonjjkkKPQ%opkMOPONJmm%MkppLJ1Qnj3j1mMNOON%ll%Jjmlj%llkj%j
54606a3KONL%%%J%j%JjnnmkkmkLQRMjml%Kkqj0lRJ7J5MljLjrj2nNO%oJRJ2Kj0j1jJ0QkrqJPQM%
54539A7moomKNMlqojNNLK%mqo%OOJjJNLmqj0pl%OQMlpmJMK%%LLKKK%lolKOOLlqqmKPN%kJMLkom
54466a1MQQJmlKNLlqpJORPM%lnm%KknojMNKJKK%ml%K%opnKNMjm%MMkokQJ1NmmMJ0Mpj0jPOlroL
54395INJlmllnnkjJMOPMKJLLkqrlJJmmkMNMNPNlj0rmLMLJLLJj%JjmplJNLjnnnlMPPJmok%jlJQ
54321aJ2Rjj0j2mNRMmok%mj0pJJ1J1Jrj0lMPMkon%ON%mlKMJkkkjjJOROJmmkj%%KLJkll%J%mokN
54253a1RPJkJNLjkJMNL%J%nrqkKNMKlqojNLoj1nMJ0MmojNROKmnkKPNK%j%%KMMJprqkjjjJMNLjo
54181BpoJQJ0Loj1qm%J%%JMJ0J5J2Koqnjlm%NPLkjLJnj0rjMJoqlKKknkLPNKK%jkk%MPRJ0Njj0
54115A2j1qj%j%KONLKJJmomJJlqqlMNONJllLJ0J0jj1j1jRJ0Lml%KJjJK%knkKNM%oomJLML%knno
54046a0nmmkJLNPRQPLjjKMJnqqm%K%%jkmnnlJ%jJNRQJnlJMJkm%KJlom%KJjllJOOLknkKMK%kk%K
53972eNPLloljmrj1oLRMknjMONOQQKklJLKnro%NNJkmmnnoonjjJKNPRQMJ%%%%j%K%lnnjJJJLNM%
53898Fmm%JjmlJMLJjJjlljLLJlmjjJKK%km%LLkl%NNjmjOPKnmJNONMKnqnJNMjnpqrnKPLkjMPMkj
53822APJ0NlmJLkqrmJ%lmkjjjkJMQJ2R%prnjknokMRJ1OjpnKJ0J0%qrmKNL%mppjQJ3J0Jprpm%LM
53754BKj%KLJkmljKLK%%jjj%%JKKJ%lookOJ1J0KmokKJ%knonmmll%NPONNOKmplKMJk%KKJJKJknm
53681E%LJkkJKJKJKknonkjjjjj%MMKkmjKjnp%RJ5R%rj1ojMLJ%LON%nnlj%JLLJkl%JKKKjmojMOJ
53608DllKMjnnJPQKjnnmjKL%mnkKLkprnJRJ3RLkk%K%lnlMQJ1RNkj0j3j2jQRKoqjMMjmlJJjkmlj
53537a3LPPKmolMMK%J%jlmj%%j%KMLjkljjJ%J%kmjLPMkolKKnpkPJ1NkmJKknmjjlkNJ1QJmjLKll
53465DLQNmj1j1oJLK%kjLPNJnnjMMjopkKOONNN%nqnkj%LQQKmpmjJ%KKJmm%MMJkKMK%lllnnlKMM
53392BKKJj%KMMKKJkonLRQkpnJKmrpkjklJMLJJKL%kkJJ%kJLLlqj0okKLMNOMJj%LKjnol%MMMJkn
53317bnjLKJkmk%LMjnkQJ4RjqrpqrkJ0J6J0kqm%Jj%K%k%OJ1PjpplnoojORPkrj0jRRmj5j2KJ0Pl
53251a1lKNnj5j0NJ6J3MjMQO%mmlllkLQP%j0j2lJ0J3Lj2j6qLONMQRM%jkmj0j1mMJ0QLkmmkJJjl
53190@kJLK%mkJPJ0NmrnPJ4Qqj6j3kMLJMON%lkklmkJKJJLLLKK%mqmLJ0Mnj1pklokJ0J8J0oj4pP
53125AJ1JpnKNlj0j0lKK%%JKKKMLJljKLJjjJKjmoqqmJQJ0J0NK%%J%J%kkjKLJknl%LLjnonkjjkj
53055a6JNOPKoj2j3p%NJ0J1QLlljjpj3rLJ4J5PKJ%orpJPPL%mqrkJ1J5RjnkKkonjJmon%JkJPJ4
52991DJ0kj1qJNJmn%MNMKJJJ%mqrmOJ0Pkqp%L%llJL%noJOPKkkLOLmj1j0nMRJ0NjjKKkonLPN%jN
52922A0RLnrnKLJLMKmqlNNkqpKPRNLknqnkjmnKOLmpkMMlmLJ1PkqmKMKjklkjMPOL%mmnlKLjmo%L
52849dM%klopkPJ4J1kj2j2lLLjkLRJ0KoroKPPLjjkk%KMjqj1nNJ3J1KorojNPOKj%K%kmnmmlJNPM
52782HjonkjloplMJ0J1MlpmKMMjlk%KLMMOLjorqnlKOQN%jjJlpmKOKoj1pJML%JNOLkmlLJ0J0Nm
52712A3j1rmNRQLlolKMjprnKOMMLMKkll%KLJlnnl%jj%KL%kk%KJ%%j%LQPMkl%KlqrmKKjlmlmm%N
52639b1QOLLLMJj%%J%lnnjKKJKNPKnrnKOMKjklmlkkkkjlmkOJ0Q%k%NKmo%LLjjLKlplOQKlljkpp
52566a4JQRKkJLKljLOMjk%JlpmKNKmpmjj%jjlnkLPN%kJNLjkMPLnj0qjLMKLKknnkLJjmlKNQOKkl
52493FljknojNRO%prpkKLknlKPONMNNKkkKPMjnmJLL%momljLMM%pqoJPOjppmLLjllKNN%oqpkMRQ
52417dNLLM%ornJLknlJJlm%MJmnjMM%jJML%j%%kjMPOLKJJnrpljmlMJ5J6PlpkMMknnkLKKjlk%LL
52344I%knk%KLJJJKkpj1pJJ0J2MnrmKMlpnLOJpo%OLklLQPKjLNM%mnkklk%JJjljLLjonJPPK%MNK
52272A6qj3j1njJLPQNjppkLPNkroMJ2J0KnlK%lmKQOJmklmoomlkKPQJop%ML%%KMKkmlkjjKLLKLL
52201D%mon%LMNLKj%JJjkKNLnqnKNKkkkkjKOLoj0nPJ4Plronmn%NOJjJOLnj1qJQROK%j%LNMJllj
52129A0jnj0j0njKKLMPRJ1PKnrrnjLLjklKPP%qqjQJ0Nmol%jmlJPOjpp%MNJorj0oNJ2J3Lrr%QQj
52062EnjPPkj2j3nJKkkLJ0P%qoKQOmqpk%kjLRJ0NJJ%J%%Kjnpnk%k%MMJjJMKln%MKpj0mOJ0Pjlj
51993bLOPNjmmjjorpkLMLJJkkJOROL%jlqro%MOMK%lnm%MOM%mkKMJmonlkl%JMMPQQ%rj2nNQOK%m
51918IrroJLJ%LPM%kJKknmLPKnqjQRNJ%JKjmmk%%lml%KK%%kmml%%klkLJlqmMJ0QJopnKPJ0OJll
51845eLNMjopkJL%j%OQMjmnlmk%KJkl%JknplLQRPKjlkJMMLJjlk%JjmkLOLlnkMKkljKKKNMkj2j7
51772a5pPJ4OmpJRJ0%rj0mKLkmjMLJ%MJ0J0L%%Jnj1j0kM%ljPJ0Kqj0lLJmpl%%JKLKJJLMKjnppl
51706a9LOOL%jnnmJOOMLMKlpmJ%oj1q%MLKMQQLjjLOMlj2j6pQJ5Mj2j4%J5J3lj2mJ0J2KomJ%poj
51643a2L%ljLL%jOJ0Pnj0lQRJqmLPJnlLN%oqlJkm%PJ0MmpkL%qj0qkjJLPJ0PKJLLKjllJMPOkqj0
51575DppppkOJ1RM%KK%mnnnnjPJ3J1Lmn%Jmj0rkMQQQNkqrlLMK%%jooKJ0J0%qnKOKl%NMlqnJKJJ
51506ENLmj0oLPKlkMLnj0nOJ1NnrlMNLJKKK%klklml%NPLKKNLnj1q%L%oo%NM%jLONjom%LKJKMML
51434A8jkkJK%klmnlkjmom%LJ%JMOL%JKKJLNNKmm%KJloonlKONkojNOJlKPMpj3qLP%mkLPNMMKlq
51361Irl%KjlnmKQRNkjKKmj1qJQP%kJLJlmjLKjnlJMMJllj%JKNOKkl%jpj4j2JJ4J4Mpj1p%NQNkn
51292fkOJ1PlqpllnkLL%nnjLNNKjmmJNLlnkLNLJLOLkppk%J%%KMNM%mmlkjJOJ0Qjj0j4pJOOKjmn
51221ikNJ2J1OjlmoppjLLjlk%kkLQNmj2qNJ3Q%kKPN%npj0j0mNOkj2j1KJ2J1LjLPJrj2pKPQNLlp
51156elMJ0OlqoJPNjqqlLKmpKJ5K0J0kqmjlnKJ0Qoj6j2JJ0Nmn%NNKJ%oj0rjOPKjjlnnlJKj%JJ%
51090a3jj%km%OJ1PjokLNLLL%oj2j1lKMKNJ1J3Qmj1j1nj%LPJ0PjqqmjJLMMjqnMJ2J0Jnnk%j%Jj
51026InplNO%olLM%lJKmj1j3lRJ5J0MKKjoj1pJJ0J2Onj1rjMLkljJ%ljLONJjjKLMJlppjOQN%oj0
50960brnJNNLJ%%kkKMK%l%%%jJOQKoqo%LKKJJjlnoo%PJ2R%oqnj%KNPPLjnnnkKLJlnlJMMMMNKlp
50886Goljlm%RJ1Nrj4j0%OLklkkJMQOJlkJJ%jJJJJLM%onMJ1PlqlNMoj1pKNlqoKQPMJJJ%%KML%j
50815A3jJjoj0rlNQQMLL%lnmklonjNPLJjj%KMLjpolKKjjLOLmrrlNPM%kjJLLKjmlJMN%nokLNOMJ
50742A1oj1qjQQOK%lpqkKJk%PJ1Kj1j4lJ2J2JrplknkMJ0PLKNMjpnJLKjj%jlljKMONJlpm%ONJnp
50675AlNRMoj2pKMjmJPNpj3rLROjkJMMLJmqoJPNlpkMPL%%%mon%JjjKM%op%QJ1MlmLJ1J5J0lj3
50608A7j7j1kNPPM%ornJNKnolklnlKOOLJjKMPOMjmomkJjjjKNKkmJNPKlkJKkpqlMNMK%%J%JJ%%l
50535CnpokLQJ1RNkj0j1pJONLKKkrj1nLQNKKNMjpol%jkLQROnj2j3qJNJklLQOjopjJJKMNLkomkK
50466a4K%jllJQJ2RLjkknqnKJ1RLmm%%jjJLJlmj%jmm%OOLlmkJJ%mmj%jnlOJ5J2%j3j4lQQjpqkL
50398a2LJKKLNOL%nokMON%npokKNOMjnpmLOKknl%KJKJ%jLPPKoplK%mlKON%kJKLLKJlpqlJjllLR
50323GJ0Mkoqpnk%%kjJMLJjJNQNmj1j1nJlomLJ0QKnnjLPJ1J0OkomjkmjNQLlpmjlnlMOMklkjmnj
50254a3MPNJjKNMlpqkKKkljLOQRMlj1j1oKMMMPJ0Mmon%%kmmnnkLM%omMQPKJNN%nn%kqj4j2jQJ1
50186a0QLkpqmNJ0PJnqokNQMmqmNQLpj2j2nKPJ1PLKPJ3J1%j0qjLlj0rjQQLJMOMmpnKLL%KNN%p
50121A8j1qkJLK%%kjKNOL%llj%%JKjnrpKRJ0Lnp%QQ%j2j5rLJ0O%onnmlJNO%lkMQRN%lll%JJjjL
50052EOLnj2j1oKPPLJJLNNLJlpj0j0nMJ1J0Llmk%kk%LLJkkjkklj%LMOOOMJoj0pjLkrj1nKPNKMM
49984bKlmJNKnqn%NOOMJljLOJpj1mNRNknlJMNLmj0j3oNJ1Pjmj%%lmjJLNOOKlmmj%%JJjk%KKjkK
49913@PNlqnNJ0Lnpn%JJLLJlnjKMKJJ%klkJJKKK%lljMLJnpqqojQJ4J5R%nn%MKmqpkNPOKmqq%OP
49841HLlmkjknnlKNOM%kjJKmrpKJ0J2J0NjnponlkKRJ1Krj4pMPLj%LL%lllnkJMLjkjjmmkLNKjmm
49771a6mjOJ2J2MnrrnJMOLjj%J%lj%KjJORLpj3j0njJOJ1J2NkjNKnj0mNPJmjMM%%LMnj1j0JQQ%m
49705HkJ%jkJNN%mmkJK%mpqnjLONMK%korojPJ0J0QMMMMjnj0j0mjJkl%KJlkKPO%nnl%J%JKKKmpo
49634a4LJ1J0LopnmmjMQNjjKLkrrkJJKPJ1Noj1nPJ1NknnmmmopoJPRM%jKKjjLNJl%MPKkjLMKJNM
49565B6jj0j2pjKKMN%qrkQQjrj0oJOQQMjj%Jmpo%L%ljPJ2OlqnJOOKjjjJJklk%%%momkKMOLkomK
49495hQJ2J0NJnqqnLRPjrr%J0J2Olj0j0okLK%llJMMJlnm%LNMJmpolJNJ0J1Nnj2rKRJ0JopjNPKl
49429A4ponkLRJ4J1Krj3qlkno%POmj1oOJ1NprKJ1J0KlJNLoj0nJLJKOQMkmk%konj%jjJOOLJKL%p
49363A1j0oMJ0OkojNNkqlORKnojJlokPJ2NnolKKJKM%llJL%nmJKnj1j1mJ%jMRQMkkJMONJnqmOJ4
49295B1Rjj1j2j0qmJQQJopjMKjJNPNJmml%LM%nojLKjm%%lpoMJ1J1Lkmlmnmj%KLOOJnn%NLorpJN
49226a4NNLJjJLKlnlNPKnpm%%%%KjmkNJ1PlrmMPJnm%M%mjMJ0QKml%kqrmNP%pq%MNLLMKmnlJLJj
49153@lnolNQMnpkMMjnlJLMNPMjnmJMJmppm%MNMKLNMJjJL%lm%MJnpjPPLlmkJlmmJML%%LNJoqJ
49079AJ3J4Kj3j3JJ6K0J0lj1j1j0omjLPPKlplLMlroOJ2Ooj0mKLklKMKklMOMlj0j1qkMOM%j%KMM
49018A0L%konk%J%JMMKjjlllJMMjnokLNNNLjoqqolKRJ2RjolJLjmlj%jj%kpqjRJ3PkokJ%mol%KK
48946iJjjjkkJLPN%olMJ0QJmjKjrj1mNROKNPMoj4j2nJK%KNOJmmJNMlpp%NOL%jjj%JLMJkljKJjm
48874BomjKNK%jKNKjlkjjkjJJ%KNNjooKQQK%%LJmonmkKNOJmm%KKkmk%JJJ%jKMN%prlKMJJjkooj
48799a1KJmJJ0J7J1%qmjmqpJKnj1oQJ8J2Jnl%%kkjjlkJNLjk%KjooJQQ%opmjjJLNJooJPNnj2pP
48733a7J2Onj1nLPNL%%kmnnjLLJljOJ1J0KorqnnlLPN%ppmjKOQPKjkKNLkqj2j0mLQOK%jLNPPLjl
48665HjK%oj1rmJLKKKLLLJjl%KNMKJ%mrqJJ0J0LmkJKlnjML%kklonJRJ0KprpmnlLONjk%L%oqlO
48594b1J2J2N%%LNJkkKM%pqoklnlOJ3J2O%loprpmj%%jknlJOPL%lll%%JKNJ0J2Qjqo%KlonJNLjj
48526@jlnjLLlrqKQQ%ml%jllJNQPM%mn%MLknkQJ3Pmj2j0kjmo%RJ0%j0qLJ1R%ookkmkJMNOM%qj0
48458a3mPJ1Q%jJJkpmJKkn%QQkj1rKPNmqlMONLNPKoj2qjMM%kKNMjpqo%MRPMjnl%LOLlpj0o%LMj
48388gk%MNKj%JMMJkkllnnm%LNMMM%jmmj%%jkjMOPNJknnpnkMQNJnrqojNRNjon%M%kljJJJ%J%jk
48312a5ljJNPNJk%MO%mlLPMlnmjlqoKJ0J1LnlLPNlnmKLJjjJK%nmkMOJpj0kRJ4Mqj2mMKmmKQNmo
48243@kOQNLKL%kllorqlMQMjnlJKK%ljKOPMmj1j4rJJ0J1Lnp%PRPL%mopmJNMJkll%jknnmjjjjLO
48172a1OKlllj%%jkkLOPOLK%knqpm%NJ0J0MlokNQMkopok%%jJLOLoj0pJOMJ%JlqrkOQLj%KKJjJJ
48100cLKKKKNOLkqpjK%mommjKPRLmokMMkolLOL%lmml%MNL%j%jknlJLLJJJ%knmjjmnJJ0J3QjpmJ
48027@MMJmoo%OO%nmMJ0PkolKNLmj1j2oMJ0QK%JLJlj%jprlNOkroLRJ0OMMjpqkRJ2Npj5j4oJJjK
47960a3PQJqrjRJ2PKJMMlqrmKNKknkJKlpoKQOjnkJJmnkJKJJKNOLlqrlLNK%JKJnqmJKJ%KNOLknp
47887a3ol%JLMQP%ooKOKppjLJmojMLJLNOKjKORNoj4j4nNRQMJJjopkLNMLKLJjj%koqmjkljNQKoq
47814a2m%%jKRJ0MnplMMKkkKNM%opmKLLKKJkmmkKNPMjpqlJJ%jKMJkl%%kl%NMkpn%NONMjnmJMjo
47741fo%NLKNJ1J0%j0rjOJoqmjjj%KKJ%KJkonjMOPRJ1J2Pmj4j6qJLlqrkMNLKJ%jJPRNkpokKLjo
47673cpjPJ0Kpq%ROjokMNLJLKkrrn%KKLK%kljJNOOKloomkkJLL%JNPLmp%OPK%KNNjnj0j2rkQJ2O
47602A8mqjLLjj%Jkl%NPKmonmjJKJkkJLjpj0mKNL%KNPOL%kkjjjlmlJORPKnj0j2qjNOLjkKORPJq
47530A4j3j3oJOPKmpojNQLllLRQjoo%LkpnLPNlnJQJ0Mklj%%lm%NOKmolKJoj1rjOQPOOJknljjkj
47460b%kopJJ0J2Nnqm%JJKKJkk%%mnkNNkpmMROJJNKlpkKKlpn%J%JNNMLORMoj1pKONJ%%loojJjn
47388enljj%NPOLJKJkmkJJmomJK%KOJ0O%nmjLKJ%JloqokLL%moJPPJppjNL%kKNPONLjnqlMO%nnJ
47313DNJllMO%j0j4oLOLJKLjmmJONK%JLLKJJJ%JjlnnmkjKMLkprqmljKNOMJJMKkpolkmookNJ0J1
47242a3MjmKNOJljLNPPNJllkkop%ONmj2pLOJnkMNkqoJNLJJ%jkjJ%lmkJJ%KNNLjlnpmKPMlomLML
47169ijjkjjKNPKjjKNN%lmjNOMknk%jpqo%OPLlj1j1mQJ0Nk%PJ0Lqrm%jlKPNknkLKklKPLlnJMJk
47097CjJ%lmjOOjooJPNmj0oJPO%m%NPN%jllopmk%J%LOPN%nnmjkmkMJ0Q%olKKkom%JJKLJmqnKOM
47024eJKNOKj%ML%nomjJK%jllJML%mljJJkkkLNMkpoLQOjnlJMKklk%JJ%kj%KKKJKLJjlk%%%%JJk
46949DnlJMLLKKjmmmlppKRQlj1pOJ2QJk%jnojNKmqjOQOK%kllLNLkmKLkooj%lmLJ4J4Nop%NKmpm
46877B%KKJkpokMPMK%%%jlnqpm%LLNOM%mlJMJjjJJkmkLL%j%K%mqpjNJ0QN%lj%jlnkKPPOJnrj0o
46804a6KONJlk%LJ%KOOJno%NLknjJJmn%MMKKLL%lk%jlnmjkkjMRJ0NJlnl%KKKJKkpqjPPjplOPm
46732Ij3j4nKLKNRNmqmNQMlnlJJJlmlJLMJjLNNJllkjklkJJKJKMNM%nmJPPkj1j2kRJ4PlqqprpkP
46662a6J1J0Lklk%%KLL%mmkjklkkkkJMPPKjj%Jlmk%jklJNOMJKJjopmLQP%lmk%JLKJlmnkj%KMPO
46589A2NLJmrj1pjKNOOLkmlkklKQRjj0j1%QOkmJMkpoLPLln%KjmkKNMOQQ%qj2rkLONLjkKLjqj2r
46520a9m%j%KNPNNLKKKMMK%%kmomJLJlm%J%JNOKpqkOO%pn%JJllnmkJKKLMQNjlKPNlj1j0m%%%NQ
46448DQKmonk%KLMK%j%%%kkjkjlmk%KK%llkkJMRRLorjOPjrj0kNMkookJKMRJ1RJnmJNMkk%MKlmk
46374I%mrj0kOQQONKlokNNJljMKmqnKKnqoJOLjl%JJLNPMjpqm%%mqoKOPLjkmmkNJ1J1Ojnnml%MM
46302FKJLO%oj0mKJnpkNNJlkkjjMPN%nl%KLMOKmokLLmrq%LJlmkJMMMKJKM%oj0pJQOJmmjMOMK%j
46229ClmpqokJLKJKNJ0J0Njl%MLj%KMlrr%RQJmmmnmKQPkj0pKJ0QLmpojNPLnrnJMMKMM%nqlLROl
46158A3j1j0lOPKkKPMnj1p%K%kMPJpj0kPP%ljJ%mk%LJ%KOOM%loonJNM%k%K%ljKNMjkk%jlllk%K
46087fLMKknlJOOJmokKKJ%J%npkNPjrj1lMNKjJLMOPO%pqlMNJoqnLQJ0MkolJKJkjKMPPKnj1j1kP
46016@RMmqokJML%kjJJkl%OOkrj0mKMMPNjqj0jQJ0LmpokJNPN%llkjjllk%KMPPPNjoroJPO%oplK
45944dQRQKmqrj0j3j2mLOLjMRJ1QJljKLKjnmJPRLmppkJLLJmmKRJ1Nkonnnnk%lrrlLRJ3J5J1Kqr
45876IjNLnrlLMjm%LL%JKJlnlJLJ%%JLMOLjqj0ojKJKLMKkoplMPLmo%J0J1Lpq%OOJkkjjjjjjKLK
45804A5lolLOLllJOL%k%Jkqj1qjOJ0J0OKkmk%%JLLMLLJ%%JKMNM%lnk%knpkLLknlKKkmjNM%ool%
45733IKMLkj0j4j3qmkkKNNMMKloolJKNJ0J0OlpmjjonJPP%mkJLJ%JKJJKLL%knk%LNNJ%jJKkornL
45663a1PO%mkLOJprmLMjomJONKjmm%MOOL%kpqnKQOjpnJMMLNOLjlmlpqlLO%olQJ3Opj0lMLlnKJ1
45591CJ0KnkNOKoj0rpmkKMNMK%jjjKNPOL%lnnnljJKlmkMPMknjMONMM%rj5j2kLKjjKK%lJNOjopk
45520a6KK%j%LLMK%jj%JJLNOLlpqkLLjllKNJlpmKMJllJNNJlml%JKJ%j%%%KLMJlnm%MNNKlpol%J
45446iJKOOjolMQMlokKKjkmljKOLlqnKOM%k%JJKJ%kjLLlj0j0%J0J2KoolLLMMLKJKK%llj%%%KMJ
45374A7lnnmnm%NPKmo%PQKlonl%%Jjj%KK%mnKQRJpj1n%L%%MOOKllkJKK%nqpjNNMLKKjnlLPNknj
45301BQRJj1j1jJ0QlqmQJ2Onj0j1j2qJJ2J5PmqkNKkmKNMknmmoojPJ1J2Okrj1p%ONLjkmkj%kpoM
45238a5J4J2%j0j0KJ0OmplLMjnmJLKKJMNKmnlKKnqlPJ2QlrqmKORJ0MjllmpojPOLj%Klj0j0njno
45173b6jJ0J5RkpkLLjk%%nrpJQJ1O%oo%PJ0Mnj1qjNOMK%kjJK%molLOM%lnmkJMMJjljj%jJLKJ%J
45104B%jkKOO%nol%%jjJ%mplMJ1PjqqlKNLKKNPLkonl%%%JJMOPMKlmkJLkoj1qJPRLlkLOJllJNJl
45030A5njJknjMNjrj0lNNL%%KJ%klmookPJ2RLmojJ%%JNNJmnJOQKnqpkJJjkj%%k%MPOJmlJJjmmk
44958bkl%NQNlqpJPRNJllmorpjLMjml%KJKNNKk%LLjk%LjnoJNJpq%RJ0Njmpj0j1lNRLkkNQNjmjM
44886@N%no%OO%noljlnlJL%kjJLKK%JMPJ0OLJMO%qj1mLKmj0mJLknkJJj%MO%opKRJ0%j2j4pKNKJ
44816a4MRNnj2rKROJJMLlnlLMkokMPKkkj%%%JJjml%KMMLJlnnkKMLJ%j%klk%KJ%jKRJ0PjpqkMPL
44744A9mqojKkl%NNkqmOJ3Qkj0pjNOLjmopolJML%klJJklkLNMKJJmonj%nokPRLlJRJ3Olrj0qokL
44674a8POK%jlpokNPM%%%knpnjPJ1J1RMJkkjJJlqrkQJ2Nmpl%%kJNMKJLMjqj0mLML%jjklJKKlll
44604c%jklkJNRJ0OjnnlnnmKLJl%PJ0LorolmpnLRJ0MmpmJNNKJLNMJklljllkJKK%j%LL%ln%OQJp
44531Fj1pJMJjjLPOLkjklnnjLKjmlKK%lkMQPLmonMJ1J2Jj2j5nQJ3NjjKJoj1r%NMjmm%LM%mn%MN
44463aJ%JK%kkKJmroMJ1J0MjkkmlJMJj%OQLnpjLKornMOKnrnJJ0J1Onj1pJMJmkNQNkmkJJlppml%
44393b0LNMJKLNMJj%jmnmKML%jKKkopnk%%LOPMJkkl%LPPLkl%LJlonllnlLPNkn%MNJ%JMKmoommm
44318a5kMRRMJ%jklk%%%%kljLJ1J2Nqj6j2kPQLkl%LK%kkjJ%KLMjqj0mOJ1Onj1qKQPjqpjOOK%LQ
44251A3PJlkKJj%MNJprm%jlllkkjLLlj1rjNPLMRQMkjJ%oj0rlLMLJJjj%j%%KLLjmljKJJKLKLK%m
44179Em%MMlpo%OM%lnllKPJ1J1PKkmool%%jmjJL%lmjNPNkj0j2oLJ1RKnnJMKmrnJML%JLM%jJLJl
44109Fnlj%lnllkjKPQOKjlljKLK%lpj0j0mRJ7J3Jj0qjNNjnlLJ0J2Noj2j0nkljKNJnlNQLno%OMK
44042@LN%qj1nKN%k%LNONKmj0rlLK%LPQNLLjpj0nLP%mjNKornLNJ%LKlmKJ0J0Jppljl%NOjolNRK
43972A3mmkmpnMRMnnLPJpoJN%opJQQKlrpkNPJooJOMklLJ0RMjjkmqpkLLJkmk%NPPJpj3j2nKPPNN
43901aOMjlm%JkmnjLMLLLKlopkOQMnj2j1kONJk%NNkqrjPJ1PMJJLL%lnnlkjJJKJjjjJ%kmkLNOLJ
43829I%JJkonjLOKj%JJjmlj%%JKLKjkJKLJkjJ%jkkjJKJJ%knookJKJj%MPPNJjllmmljJLNNLKjlo
43753EqmKNKmpjPJ2Omj1j0nkjkkKONL%l%LOMKlnnk%%lm%NNJornMPKmnJPQKKOJ1Rlj4j5qKNNMKJ
43684DjkjjjJOO%qj0kON%jNJ0Noj0mMNJjMM%qrm%kmlKONjlljJKKjmpqojPJ3J1KqrjOPL%%Kkmnl
43614a0jklnmmk%MQRMjpqlMROKJKMJoqm%JjkJMN%mqojOQO%mpomkJLNLMORPLkllkkljKNN%lmJMJ
43539Hmpnj%j%LPNjl%NM%jllppjON%nnk%%LPMlpkPRLorokJMOLmj0pKPLlmKQPMJ%MOMkrj0mOO%r
43466cj1nLPOPONJlmJOOLnrqmJMNLjnolNJ0RKorrojJL%mmJOQMJjj%KLL%lnnmmkJJlppJRJ1PKjk
43394C%jkmon%PQJkJPOkj2j3qJNOPN%onJNNMJjmnn%JKKLLjnkNRPjnooonJQPjoojJjljLOL%lljM
43320fOM%nlMOMlol%LLLNPOL%jkmomllpj2j0JJ0J2NkkLNK%JJklkMOLmlMOJpj2qjJKMOOLK%kmon
43250AomjMNKnpkOOJk%Jmj0r%J0J2Oj%MMjnrpnk%jj%JKKMOQONKKkqj0mMRNllJMK%jjkmk%%mrrl
43179b2LOL%jjLOQOMJKjlnjMLjmlJJlm%NM%jJMMJKONkj0j3pJLkj0j2mPJ1PmoKJ1J2Lqj1pJLLjl
43113cmmkJK%jkJLPPMJlkj%jkJNOL%%LMJjnnomJNPKmpokLK%jjJJjk%KLjopl%JjjjKLLK%jJMKko
43037elPJ1Plqm%jmn%JlqpkKLKLL%kkNJ0J0Koj0qm%KLMNQQKqj2pKROJjjJKMMKnj2j3pjLLMOLJl
42969fkKLJlk%%lkJOPJmok%J%KMNLLNMjrj2qjMNMLLLLKkoql%jooJQRL%MQOnj1pLNLJJKlqrmj%J
42896a1JK%jMJ0R%rj0%RPKmlmookMOKlljLNNJmqqkNPM%%MOONLL%oj0j0qk%%%KORPMJ%KOPN%pqo
42826B0k%KLK%kkKLlrpJOjj3j5mONnj1pJJklMRJ0OPPO%ookKLKKkopnlj%KOQMJKMjrj4rKRO%kk%
42756gJJOOMkpnkJJ%KMPPNjpqlMRMnj1rnkk%OJ0RMJJL%oplJKkjMNJno%NLjkJOMjoj0qkNJ0RKmo
42685HkjKLON%mnjKJjkmljMQN%kKMlj3j5pOOjolONmrnLPMkjJL%jJLKJkj%JJ%klmkKPPKklJKJno
42612dkNRNJJKKlpqlJLK%j%Jjlnn%MLjpojMM%lkLQRPKnj0qjOQJqj2oNJ3J1Kpj0oKPPNJklj%j%K
42541DLJlmJPJ0Kpj1rm%MOQOJnqrpn%LLMNPPJpj1rmk%KMOMLNRJ0Lnj0rmJL%knnl%LNONJoroJQ
42472gJ2RLqj6j6qLJ2J0OLJ%momJJklJOP%pqnJOQO%nlMOjrqLJ4J0nj6j2JPNkmkkjLJ0RJplOJ3Q
42408B2jqooqqlMQPKkmoojMMknnJNOMOPO%lmjKKLMKJlmlljjjjlk%NOLmplMOKmnm%klkj%km%MPM
42334aKLNKlom%%J%K%mo%PJ0LklKKnj0j0jMN%ljLOOKkkjJJJLMLJ%jjmonKNMlplMN%qj1nMJ0J0M
42264I%jJLKlookKMJlqnLRR%qrjONjnmJMKjlkk%J%lkKOPLjljJJjlnppnlJLLMLNOMjomKQPKlmlk
42189dkjJMLKJLK%mnmlkJNONJkorqlNPM%%MNJjjJKlkJOLlmjKJjJOOkj0j2mLLJJLLjomKPPKkkkj
42116FJNOJqj1oQJ6J2%pp%Lkppm%jjjjkl%MPRQPJoj0rmknoJQJ0Jn%PPmj1rjL%kPJ4Roj5j0MJ1O
42051IjJMLpj2qJQO%kJNOKloqm%LMLKJknmJPJ1Okj0rmMOMjljjkon%LKlqmKPNLJLKjonjLL%jjjm
41978injNM%lKQPmj2qMRJooLRPkqpmJNPOJlkJKknmKPPJnj0qmJLK%MPPJnmJMJlmmlkLOPKnnkLNM
41905EMNNMMJjnlKMJrj5j3n%JLMOM%lkLONJnqn%PPNKlnpkMPKnqmLNNPJ0Qjj2j1lL%mn%NNjmmjJ
41835@LKjkkKNNJj%L%mojPOkrpLROmj0j0n%LOPLjn%MMlolLM%m%OQNJkoj1j1mMN%omMPPMJkpqkM
41763gLlnJJ2J3LopjNLlonkLMLjll%KL%%%JLML%mrqjNQNlplORNpj1lORKnkNMnj1rJPQNLLjkl%k
41692Imnjjmrq%PP%orokNJ0QLkkjkmjNRLoqJJ3J3Npj1rm%LNNKjjkkl%NQMlrj1oJMNLMMJjmoqrq
41622c4jJ0J5J1%opjKLMMJkool%KLMOMJnj1j1nQJ5J3JokPJ2Moj0nJKJKLJlrj0qkLQPLmm%RJ2RK
41559B6npmjK%JJJjoj0p%RJ3J2Lqj4j1JJ1J4PjoqpokK%knjLMJKNOK%JNLlp%NJqj3pLLoj2qLJ2
41496a4J3J1Mlj0rmMRROJpj0mPJ3Q%mJMJk%PPjolOJ0OJlmoplJJkn%NQN%korrlPRMmpm%kj%OOJo
41427B1oJJ0J6J1LlmmopnKQJ1J0OMJ%kmonlKMNMLPJ1J1Okrj2j0nkmormJN%mnjKjpj1pJPPjrj3p
41364dMJ1Qkm%ON%kkJ%nmKOOJJKKkmolj%%JLOJ2J4J1Koj1rokjJ%kmlLRJ0MJ%KLKK%mqrmJLkqj2
41296A5j1nJOPLkljJjnmlklokOJ0NkonmprnNJ0NlmKOPKKK%lljKLJLQQLlnjLMjmmnlljKMMMJ%lo
41225FpolLPROJloqpmjKKLPO%poMJ0Mqj3mPJ2Ojll%LQPkj1j1lMLllj%klKPKppLJ2RmqlMJnpKQR
41156IKklljkmpj0nMRKqj0%J0RLkMRQJnnlkmomJNPLlnkLPMKKLJmqqlJMMKJ%JJKkoqqolKOMknlN
41083b1QNlp%PPJm%MNmj1pKRQJjKLlqqjNNMLLkrj0lPQ%pnJNMLJJj%KNLjJMKmqp%%oj0lOQJkKNK
41012cppJJ0Pmj1q%LJj%LNKklKOPKlmjLkpj0mJLMKkpj3j0jQJ1N%llmkJKjqj0lOJ1RONOL%pj0j0
40947c6pjjklJQJ0Nkmkjlnl%LJjk%LPNjrj0lOPLkjLL%kklnnjMLmrqopoNJ6J8Oqq%OKnj0romJOO
40878f9krrjPJ2J2J1J1J0J0RMkrrm%KNJ1J0Jj2j7j1jNMKJ%monljkknqqjOP%on%%jjKKnj1pPJ3O
40816f6nj0rqo%PJ2Nll%LNJ0J7K1J6J0J0J3Pj%J3K6K8K3K7L2K3kk1j8mLlnOJ7J5RJ3K7L0J9J9
40769C02N4J21J85K17K05J44N4k7o1m7k7l0m0k1J8L2J0OM9J02J31K35O08J283J962K179J695
40741I339P29k26p96r37q19o32m80m28m89o05o64o11m95l80k52m6K30M34M23K07o0k40l10l35
40717B557l52l43k96k31j79j45j05o2l9l5l0pJ8K0RK1P9J62K27K48K21J58P4%l2j8RK0L2R4K34
40685B309M23N96O83O34M34J66M9L13R91J789K224J993J199K69m05p21q03p60n32j9O93J258
40663A2783J297O95k54j061j384j252r61p96q22r26r79r50q71p72o54n31m25l35k27q0P1J51
40640A717J28L4o6j31j58j56j37j12r0o9m5k1j1j1lK2L9L1J6K5N7Q0J05K05M25O71P65O04K83p
40610D190j68k34k64k33q6J48L52M16L20J23m4J4M68J262K000K158J517L80o70j251j396j367
40587G635j320j229j047q24o47n32m26l09k13j70j48r0J2J21J92K02J49M7o7j39j52j33j22j24
40563F66j17q7n7m3m2l5k1j8k7k7j3MMpj5j0nmkOJ0Lrj2l%lnLJ3J4PNJ3J2kj6j3JJ1QNONpk3k5
40515A48j1ORMloj0j4j4roomMJ0RKj%%npkKkj0j2okpj2kJ5K1RorjMLJ%kqj4j2okkLJ2K0J9J6J5
40459A19J3Ooj2oJkrpNJ4J1%j1j6j5j2p%MLLNPKqj2pJKj%LNMLMNkqpjKmrqjLK%KL%mnjKMMKjor
40395D7mKNLKL%npjNOJllkoj1qjLJnm%jjKRQ%qoMJ0P%kkkkjMLjnJOLnj2r%NL%jj%MRQJnn%M%nq
40324B7qoljKKklKPNlrnKQOLklnmkJLNOKmol%J%LNLpj1mJ1J6OppkJprjJ0QmrJJ1J0kpkMMKKMJp
40255B9j0m%ko%J0J2Kj2j6oMRQMkqpKJ0Qoj3pOJ0Koo%joj0mNJ0MmplKML%J%J%jJJJ%kjMPN%poj
40191ALLknlMMJnkNQLmnkJmokOQLmm%KjmkKLJjJKjmpm%JLOPOKnqnLQLmrmK%np%ONjlMJ0OnqkNL
40117CmnLPMjllloonlmkMRO%kMRKrj3nMMklJPPMK%jlkMOKlpok%JJKKKMONJlomjJLMK%kmmmkj%j
40042imjLQQLlnjLMLknnlKPQMmj3j3lOJ0MlmJLJ%%JkmmLQJ0RRRO%mprj0j0pJOJ0J2J5J1Jj1j4
39980B9j0mmrj1nLOOL%mom%MMJ%MMKmrj0pkOQPNLJknolJNMOMJllLJ1J2J1J0J2Qmj7j6kJ1J4PL%
39918F9%mnkJmrj0rnm%OPkj2j2jJ0J0JlJOKpj1qkjlnmJMNMJ%JLJlnnll%ORNnqkRJ2Pjk%jkMJ2
39853C4J3Nnj1rqqpm%%j%LNMKKKJ%LNJrj5j2lJLJ%jkjKL%mmLOMjk%kllLQPKkoj0j4j1kNMjj%Jj
39786c0%RJ9J6%j2j4qkj%PJ0QKnprnKRRJpmNJ0RM%mqj0nMNJlKRRJpojknmKPMjJMLpj2j0lLLMPP
39721D%qrmLONMNOKlomj%mpoKRRJomLO%rj0mLJklLON%kklmmLQQkj1rjQQ%pp%LNLLNLJ%MOJqj2m
39648a4PJ1NoplK%lnlnpoKQNlomK%lnkLOJ0J3J2Mqj4j0kKMPJ1J1LonMPKppMJ1QjmjMMjmoqqkOR
39583A1O%ljK%jkklmm%%kmkLOLjljklllmm%OJ1Qkpn%%jJMPMkjLPMKklmnlLJ0J3J1N%jklmomjLK
39513B7%moprokKKlolLMKJLNJkkKONjorqqn%LOMKJkmm%MMjplNJ3J2LklJKJ%KOOJnojKK%kllkJL
39441A2Kmrj0ollJMQOLMPOkqoKLoj3rMJ0OkmJNOMLjorlOJ2QKloolKMJmmKPLnojOKnqkNPNK%lpm
39370@%MK%JJ%npplmjNJ3J2MoqlJKKKLKlmkKKjlmm%LNMJjjmnnJRJ0NlljJ%kj%lqrmLONKMPPMJj
39298B0KLJ%LPQNJJJ%ljLOJorjPRKlkLJnj0oJLKjJMNMJjmnnpon%NPL%JMJpj3j2oklnkKQRRPJmo
39227B2mkmpmMJ1J2Nlm%MNL%kkjk%NJ1J3RL%JJnrp%NJk%QJ0Mpj3j1njKLJnnlJkonJOLlonllmnm
39160@lljJ%nnJQJ0LlmjLONKkmkKNL%j%%kjLLjkJPRLmpmnpqmMQPNMMKjmopjMP%pnMJ4Qnj3j1jM
39088A0Kk%KJlpolMNMJ%LNJmokJ%JMPOjomKMMLMLjnnJKkpmJML%%jkjKLkj0j2nRJ6J5QJljJKlj0
39019B7rlMMlnJPPKkjlnm%Lkj0pKRNmlNJ0OjlLONKLJjljKMLNQQ%ooKPNjkknpnLNKmpnmnmJLLkn
38947C3lKNPPJnpljjm%NN%mjMMjlKQOKLOQRJ3J7J5LpkJ0J4MmLJ5J8J1MLMknKJ2R%%RJ7RJMJ7K1
38885B99RLJ2K5K3J4K2M1M8L5K4M2P0Q4J03J85L30M41M11K45N3o4j07j02j5K12N28P34O45K90
38854D640j15l73m53m34l61k09jJ52J32m2k37l37l38l14k97k70k16j57j22j06p7l8j3j7k7k0J
38827C51J3J0OJ6K5K1J2J6L1L7K6J2J7L1L9M0M4N7O4O2O1P9J10J55K41L93N76O79O16M12J78l
38794D427j26j69l4L64R17J297J203O31j06o46q43p80n97l71j39K1K8j18l25m86n63n78n54m94
38770A959m11l30k68k18j61j04o8n7m9l2j0kqj0lPJ0J1J4J6J0KMJ8K4J5MJ2L2L8K6J5K7M8N3O0
38733F74J19K46L70L85K65Q9m1r3r8m9J09L74O06O22L68nk90l98l93l43k44p8Q7J29J1j71k85
38705A966k97k72k62k55k19j59j14r6q3n4k9k4k9k4plj3j7kJ6J9J1QRMj2j8mJ4J4POJ6J8Mp%J0
38667A22QmoQJ2mk0j3PJ4KoMJ6J0ooJ0J8NqmJ0Oj2j7%J3Pj0j2JQ%pJPjj6j6JJ1KoKJ5J2krmKj%
38613A44J4K5J9LkRJ3PPK3M0L2J2QK6L8K2LPL2M4M1M2N7O4M5K0K0L9M6L8M9R8J69K27K61K66
38575B008K17J07kk4N6J53J86J64J38J09M8k1j7P0J53K33N08J155J968K379J969R23j38p50r22
38550A0670q23m28L73J335J843J443L35p87j375j383j085p18m05k54l61o58r13r63q53p28o14
38528C651m12j02J72K40J01j09k67l46l73l59l15k66k31j95j39p9m3k5jK9L6J9J9N1P7O5M8O9
38500A315J18J52J93L25N49P06O36L69R3n3q8n7J08M51Q18R27O64K14j60l52l56p8N99J491
38475H584K060J848R39j24q63j184j172q07q0P04R98N26l96j152j418j352j250j177j013p22
38455B949m45l06k79k66k36k21k24k03j43p8k7L7J18J59J02k1j12j27j09j14j28j11o5l8n0o3
38428am6j5mj2j2LJ0lj5j0LJpNK9L6J5qqNOqj0NJ9J3JjKmj6j3RK0Qj2j3KOqj8rQRjlOPpk0j5%M
38374f7oj0KJ3Pj2j7qLOMOOJpj1pnmLJ7K1Rrj7j0lmkQK0K1J2PQPJoJJ0J4PKPJ2J0KJLJpj2pjJo
38317A5pjOPM%lpj1rnkmm%MMjl%K%l%KLKKJjonLQO%%KJmoKJ0Qnj3oOJ0O%%%kmkKJoqpnkJPQLkj
38247iNJ0OjllmmjLLmq%POlpkLKl%POlj2oMRLkkjmqlMOJkJMKmlLOJnlKJkmjKkkMRQjm%NM%%ONn
38174A7j2pKN%lLPMlo%MJpqo%KJJ%%klmppmJLMOQPKkLPQJlj%jon%KknkMONJLJlpoMJ1J2QL%klm
38103B6kj%KLKlnlJkmmMROjommookMLkkLQN%lklnl%M%mn%ONNNOMjmj%lonjJjJORNjnlKOQRO%l%
38028D8NLoj1pKNJj%Jkoolkkl%L%nokLKjkkJLMLJoqo%MONMlqrkMLklJQQMJLJjlkjmolMQQOMKm
37956C1j1j0lLM%%JjmmjKLjmnmlJNPLjkmprlOQLmkPOkrnOQJqnLN%njMPLjmpokLL%%OJ0PmqmJ%k
37885AjMKnj0mPJ0Lk%L%noJRQkqoLJ0J3RKnplK%kmkkmolLRQMJlnrj1q%J0J4J1Llk%JjjKOOLJKK
37817D3Jj%LKlolKKklLPNnj1oMJ3J4J2Mnj1qjMJljPQLnj0qlmprrlLRRJmmjJklJPNlrrnkkJMOLj
37749A6%OPLkjOJ1RM%llk%LLKjknppkLKkrqjOJ0PJlmlkmnlKOPNK%jlpj0qnlllkj%j%jj%JMNNKj
37678IlkKMLjmnmljkk%JK%%JNNNKLLLlpokJJjKMMjoponrqjPJ0POML%lkKJjjKOKkm%%lnkK%nojN
37604gMjjLNKmlKMJjJKJnokKKkkKLKJJJJjk%klnjLL%kjLONLjlnl%%%%%Jjj%LJlrpjKK%jJKKKjl
37528a1l%NN%pnMJ4J2Mmolj%j%jklnmmjLMKlkLPMlomj%kjJLKkj%%mpnJL%mmkJKMPJ0QKkLPMnj0
37458dpJLkmJJ0J1LmmJKkolMNjpmMPMnpn%K%k%KL%kjJKjllkKORJ0NjljLjrj3pJOMJ%lmokJjnoL
37387b4J0RJnkKNLJjmpmLQO%kJjqj4qLJ0RLjkklmlmmjNPKmnJL%lkMLknkKkooLJ0QLKMNJmljJKL
37316fNLmo%PQM%%LJknmk%JJJjl%KKlljLJmmJNLkommkjLLkpo%LM%KLKlolLRQMjnolKMJkkJJkpo
37241b4%PPJno%PQJnojMLkkMOKklKPNJjkmpo%PJ0N%jj%%JKJjklkmlj%KKLONJk%K%molKOMJ%loo
37168AkLOQON%mpnkJ%jjJ%%kjjjJKL%moojKLMLMLJjl%KJkookKKKJLJkmjNPKnn%NKjjMOMkmm%KL
37092A8KK%jmnm%K%jjKPMjnmklppkMPLJKNNjpojNNJjj%jjkjjjJORQ%rj2rkJLNPO%pqnKJlomMQO
37019FkomJOMjmjMMLjkmmjLONjmlJLL%knokNJ1J0N%klopmKNNKKKjnlKQO%nnkKMLlj1j6j0%RPM%
36949GjkmlJONjmk%Jkk%LKKLM%oplNO%qj0okMOQN%lJOQLnqnKLJmlKNLjmkJLKjmprpkNPMjlk%%%
36874a0%MRRLmrolk%JLJmqlOJ1MoplK%nlLRPKj%LMKjmon%MLjkKOOjnmJLjnm%QJ0OjnnjLLJlnl%
36802CKLJjjKKJknmlkj%J%ljLNLjjMPKmokLKjj%%lnmmk%KLKjkKLJjk%%npkOROjjLMLkmnljK%kn
36727a1m%JKMON%pnJLkj0qMJ2QkqmKMJjkllkKMJkjLMJkJPPJljKJlo%MMlokMOKkjKKjljKLJkkll
36655bmmkj%jjKLLLJKJjlljMNJklJPQJnm%LJmnjLNLJmnmkJ%jKPJ0MnqmK%opKJ1J0KmkJJnokLLj
36582DookJJknlLQOJmmlnpnOJ2RkojPQJl%NMjpmKNJllKOKmqmMOJnnLJ0RJnokJ%%%%%KMNjoqmMP
36509A1OKjmnmj%%%%%Jkkk%jkkkJJ%jmmlKNOPNNLKll%MN%nrn%M%lnjKMJJLNKknnnpojORN%%LLj
36435Hm%MN%pqmJJ%%%J%jlkLNNlj0qkORPJknjNQNkokOOjpokLKLMNKjnnonjMPMKjlmojORMnpmKK
36360EJJK%oqn%LLNOKmqkLLln%NOL%KKlqmLOKmlKNN%lkJKKJlnmkkkl%JknnkMMLLMOLJkklk%%Jl
36285dmoljKLLJjJOOJlnjLMLLJknolj%jkknnjMPMknjLNMNJjmlJJknmjKKjJJJKKMNK%JL%lnnjLO
36210CONjnm%LJkl%%lolLLkon%MKJJKJkjLNL%kJMMknmjMM%kkJMOL%opnJNNjonJPLkm%LKmpjPJ1
36135A3OjmkLOMkon%NN%opmjjjJKLknmJPRO%prqlKLJkj%LLL%lkKMM%kJNNkqqlLNLNOMJnpqpokK
36061hM%kjLJmpmMJ2J1PjmnkKKjmkKMKmmJNOL%kkmm%MOMjnrrnJNOLKJJjjJKK%mkj%lomKONJll%
35988aJJjkkkjJMQPJjj%J%JLNKkmk%jlljJjmopqoJQJ1J0NLKjnlMQMnqjOO%lmmnnJMMJJOP%rj1k
35915CMLopjQJ0Mkonl%KKknlLOOLLMM%nm%NPNNNKkqrplkkljJKJJ%JklmjJLJJ%knj0rnMJ0J2Njl
35844FJOPJmmKOKkl%KMLLJoj2j0jQQLkmnqqjONpj4qOJ7J3NkjJJjjklmJOQMkljJjppmkj%LNMkl%
35774CNQMjlKNOKkonmllljJ%kljJjnpmLOKmnJPNkrpJPPLjlnon%PJ0QJmllkjMPOjj0j2mMQN%lk%
35701gMNKlrpKRJ0Lpj2qjOPLmrmOJ2Plj0p%OONL%lmllmljLOMkmjMNJmmJNLmroLJ0PkqnMJ1QJml
35632DJKJlpokNPKpj0oKQMlomLPNLJJ%%kj%KjjljKMONKlmJNOLJjmrj1lOQ%qqJN%omPJ3Qkqnkj%
35560aJLL%kkjJK%kkjML%k%NOJmmjjnoJQJ0LkkJ%oplJ%molJKklkKONLJLPOjj0rjPNlpkNQKkm%K
35487EK%mppjMMjlJOOKJOJ0LnrlMMjk%Kjl%NN%mnmmljMNJklk%jlmnnlJLMMLJklJNOKkjKkqj3oN
35413a6J1RLJJJlkJLJlnJPPKjjJlj0j2q%MLJJMPPMKJkllJK%nqqmml%NPMlnJPROLLLKjlkJjoj0q
35343fkKJlmJORMKJLJmpnKPQMkprnLOKkjRJ1Kj1j7j2lJ%JLJkjQJ4J0kj0o%joqkQRKnqmJNL%jKP
35275CM%kKQMorjJ0Rnj7j2jPLjJOPJljKJmmKNLmplJMNMKjoomljJOJ0J0Lkljjknl%%lolMRPjopm
35204dj%%JLMMLKKLLJoj0rjOPLnolLNL%klkjkjj%J%knolLNMjmlJMJ%KQJ1Qkrj1rokKNMJ%LJ0RK
35133A7qj3j0lMQQJpj0mLM%mjKMJ%LNNKjknpqmJMMPJ1J3J1Lnrj0qnlmonKJ0J2NjlJNKllJNKloo
35068ammqo%RJ0OkkjJkljMMjqj0nKMNLJ%%KMKlokNRRMjlnolJNPO%j0j3pPJ4QmpjQP%mk%krj1nJ
34999a4MKJNRRMoj2rlNOMKMPKnj0ql%kmnllmmm%MPO%mjJ0J7J0jj0rj%lmjK%jKPRMoj1rlLOOMJ%
34932a%%JjlpqnNRNnqlMMkmKJ0RJk%NKmo%OLkn%PJ0PJnomj%kmmkjjnpokNJ1J1OkomKPNL%kmnmj
34860c%%knlKPRLjm%%nj0oMJ4J1jj0rmjkkjkmn%MLJ%MOLKKM%mkNRLmlLNlj1j1kNPMKkno%POkrm
34791a3NNkpjOOkqmLN%pnJRJ0NmrpMJ2J1MoqlNQNlj0rkMNJnnm%LMOM%kJL%prkORMJJKLjlljmpr
34721a1omJLOQOLJJ%%mqqmLL%mmkj%LOPjrr%QNlokLNNNNjrqKJ2Qkp%QQlrj0olKPJ1QKj%Kknnnp
34649a2pkQRKpoLQLmlKNKllkj%KMMlpok%jkkjkJOJ0O%jPJ1OlolJjk%LNJjJ%nrpKRNmqlKJklJML
34577ClkKOMknlJKkmolk%JKMMJjJKKJJJKJmqrnLJ3J6J2Kpj0pkJJj%LPN%mmJLkj0j0lNNJKNNkj1
34509aj2jQJ0LjJMKnj0rjOPKoj0qjMLJJKMJkkkjjJMPONJlpojNLlqlMOjmjPJ2Pjmlj%kljLNLmj3
34440dj5qJPNjlJQJ2J0Kj0j5j0JPLlJQJ2NmnJLlrj0nkkjMJ0J0Loj0pJRJ2R%nnkknnjKJoroJONL
34377a6KLKJJJJJJJ%nqnKJ0J1NkmljnpmNJ0QL%OJ1Rkj3j8j4oMJ2J3PjooklmmJPPLknolllmlKQQ
34311b%qq%QRK%KMJkljJJJ%jlkLNLmqlKKlo%PJ0PKjlnnjLL%orj1j2oKOMLMQRKkKQRKllknj1j0J
34241a3RJ0K%MRQJmnqj3j1lRJ2PlonkKLKnj0j0lMPONOOJnolllkLPNkqrnlmkLQPMNPRKpj1qkjnp
34174b4kNRQPPN%pj0nLNKkm%K%nonJOO%lnJMMjnmj%lolMJ0PMKLKknjMNlj0qKRJ0MJJLJknm%MQN
34104B3mj3j6qKO%kKQR%j1j4pKMJk%OJ1J3J0POMKmpnj%koonnnkLNLkkjJjj%Kjk%OOjqmORKj1j5
34038a5oNJ0OJ%LQPLknnnookMPMkkLKnrlQRJj2j3oOJ2J5J0Jj0j3nPJ0Kn%POmj1qKPM%JNOMKJkm
33974B3ppok%KKjkjKMK%nrj1nQJ8J5jj4j6qKQJ1J2J0Kpj1ql%LPOjrj1mLNJjkljJMMJ%MPKoj0lL
33911cNMNJ0Ooj5pRJ5MqpOJ2Lj2j9j3kMPQOkj1j1kPJ0Ljk%%jjKNLlqj0plMPNlj0j2jRJ4OllLQM
33850HlplMPMknnkLLjlkKLmj1j0kOOKJLOQOKoj3j4pNO%lKJ2J1%rr%NKlon%MONJmlKMMMQJ0Nnj0
33783A3qjJJJK%lnkKJmpkLNMLNNJkmlmoqmLQJ2J0MlonlmnojMONMJormPJ7J2%j1j2rokLPKnoKJ0
33716bOlj0mMRNKkoqnKPKlmJMkrj0pljMJ0J3RJmm%LNOOJopnjlqoJON%l%LLkn%QJ1NlqoKPPNKlm
33645HlJMKj%MJ0Omj1j0lJ%monkNRRNkm%LJmrpjLM%jLJ0J1Jj2j4lRJ1kj1j2nlnkQJ5J2JnjLLkj
33582GPJ1P%pj0j1qlK%mlPJ7J6Mrj3j0mLRRNllLQNlppmnomMQPNJloojNQOKjknmlloqmLNLjJLJk
33514CJJ0J5Oj3k4k0qKNPRJ2RN%molKMJnrkNQL%jKJj%LONLKkoj0j2rlJNOOONMJoj0j0nlljPJ4
33451HJ2kj3j4mPRLmomj%KLKJ%%JLKjnkLOKopKROjmk%jl%LjpmQJ6J0pj5oOOlrpllpp%NPJmmKJ1
33383a1J6J2Jqql%kkKONjjNJ0Lj0j9j4mMOLLOQP%pqmKKkjPJ2PmpJPLpj2pllmKRPknJPNmo%OKml
33316AKLJk%Ljqj1o%LMPPO%knj0j3mJ1K1J2nj2mPPlj0o%KNRJ4J1JpqmlllknqlOJ1QjkJMlj0j1n
33254a3LPJ0RNkrj5j6j3jJ8K9K3Mj2j1k%pj2oNPJlkjkjLOJj0j4nPRJmjLMMPJ0Plj0pjJJLPMlj0
33195CpjjnnLJ0OmojNLklj%ln%PPkojONkj1rljllKQPLjKQQJormKMKjmljK%mrokLLMOJ0J0Mlpnk
33124h%jj%JLPRPKkopnkLMjrq%Nkj1j3jRQkrkPPKJLMkooKMjmkMNJmlKMPOO%mnjJkokOJ0MmmKPL
33052A0km%Lkqj1oKPOLJ%MOLkqroljk%LONjqj0nNJ1Rjpok%KNJ1J4Opj5j3kNOJmolKNMJLPP%j0
32987aj4pKMLLNMjo%QJ0Jj1j2nJJjJOO%pp%PROKJKKJjJMLoj3j4mRJ4QlrpnmljjJ%JLMLKJjk%%l
32918a0rj3pPJ7J5Nlljjlj%koqjORLkmjKLNQQKkpqpmLRRKnpmJOJ0RPJlmnqqlLN%nmJ%j%OPjj4
32850fj6mJ1J5P%kKNNMJmn%MMoj2j0jLJkl%JJJKJjkJKlpokMOPQOlrrMJ4J5Lj0j4rlLONjmjNOMk
32784A0mkjj%K%orokjopLJ1J2LpqkNOLKLLNMLkrj4j5qKJ1J2OlnjMPRQOkrqLJ4J4NmlJM%nqnk%j
32718A5nqj0mJNMLJkprkOQjmMJ4Rqk0j3OJ4OmnLJ0RLmrj4j2nKJ%%QJ5J5J2OMjoolj%jj%JJJ%mr
32655IoNJ4J1kj2r%LjnlKKJJMNKkjkllLRRKljLJj0j4pLQJqrnLPNJmmjK%ljNOjrq%OKj%ONlpmKL
32584amo%PLooJRPjlKNJomMRMlpmJJ%JMLlpqkJJ%LPP%rj2lRJ2Lpj1oJNMKKJjlkLPO%lmlllKQOl
32512Hj3j1JJ0Qmj0oJL%l%L%llKQJ1J2J2Olj0j0kKJj%NMmj0j0mKMLjllLPPJmkMN%njKJnn%MJop
32448hjNOOQOjj2j6oNRPMJmj1rKJ4J3Jj0qJMJjKM%ppkK%k%QJ0NkmlknmlKKjjKQROjprojMPPMlp
32380A1qpmnkLRRKoplKNNPPKmqplklkLNLlmlKLMOPLnj1qKPOjonKML%l%LK%mprpmJPQOJkj%Jjlk
32306ikjjjMQJ1P%nmJPOjqj1qlKJkml%MLKJNOOKk%LNJmnJMJoj2pLJ0N%lLQNnj1j1lNJ1J2Pjrj2
32240FqjKLMNMkpo%M%pp%ON%mjJJnqpkKLMNM%pro%PQNKJLNNMLJ%lmnk%JklJNPN%kjKML%kmopok
32165eNRNjrj1o%Klnl%KkmJOQLjjJ%ljNJ0QKmnorrkOJ0Njlkjjk%MQJ1J1Nlj0rpnnkLN%nnJNNK%
32095coj1j1JJ7J9Nj2j3JRLpnMNlj1lJ0J4NmjMNlqmJNPOJpj1oNJ0MjJNLoj1j0nnqmPJ5J1M%Jjk
32035FkLPJpj2oKNLLNOL%jJJK%kmm%MML%KNN%lonl%K%nj0qlJ%kJPPKk%L%mnKPNjnpqj0rkNO%kj
31963b0LJljOJ0RKkljkkmlKNO%onJPNkrj0pk%KKkolQJ7J4MmkKNLMNJpj7j6oLOKj%Jjj%J%kjJOQ
31895APMKkpj0j0pkNJ0J1QJljKOKlqj1j0nMRQJmmJLJ%MJ0J3Pjpppnm%LOOM%knkJJmplKM%l%NLo
31828Ej5j0JPNJKMJpqjOO%kJMJmokNPPL%k%KKoj2j0LJ2J4Pjnnnmkjkm%OOJopjOQMjnnjMNKmplj
31758gKKJjqj3qMJ3J4J0PNjqj2pJL%lkkj%QJ2Pmj1oMN%mjLKmol%%kJLKk%OJ0OlqqokKON%nkOJ2
31692A2OlqlLNKmoljJkmlLQPjqqn%LOPO%qj0o%OMkopkLJlmPJ7J6Lj1j2lLKmlLNKlmjLMML%lmoq
31623a4j0pLRPko%J2J3Mqj0mLMKJjkjNPNjokNQKorlNPKproKNMLLMjprlNRMkjKKknm%JkmlKOMkq
31553gqmOJ3J2LmpmjlppkPJ1Q%mkJJlppkKKLOQMnrnNJ1P%k%OOKlnkJLkrj1pjNMKkml%NPM%mmmn
31482a1ml%JKMPOlj1j1%PNjkKQNklMRQlj2j4rlJJ%jJLOMJKLLknjJ0J5Rnj2pNRLmpl%%jklnpmJN
31415a1KnpjQJ1RLjj%jqj2r%QJ2O%ljKKjmljJJKLNOJpj4j2kQRJqoJOMJKPJ0OknlKMMJkjkkoplM
31347AJ0Nmq%RRlj0r%Jln%OO%jKMjrj2nJMMNPN%mnkJMOPOkj0j4rJRJ0Moj0qjMN%molKORQKnpo%
31279iOPNknmjKkopl%%kJQJ1QkppJNOJmolJNL%nnm%NQNjnmjJjmlLPOKmmkLOOLloqnkjJMNN%mon
31204a3%KJnnlLMJjjKMKjJLMKJ%jjJNN%pj0nKOM%lmml%MKjljNOKlnmjLNL%kJOQMmqnKNKlmjMN%
31131HjKPNoj5j4lNQNLKjppkMLkolJJJMPP%ooJPQQPKlollrj6j3JJ4J3KooJOQOLlqpjL%qrmMRRQ
31062IJpj1oLPJoqomljNOKkkLLJJPJ3J0%qj0j2j2qJJ2J0%pjQNoj6j0OJ6J3JqoJPQKloljlmJRJ4
31000FPlqnkjlkkkmlJMMLMPNkrnMROkon%MLkproLQQL%JKjorqlJPQPJk%NQMjmmkkjJJ%kjJ%kkKR
30924IJ1PjnnljknopmKOOKJNRQKnnmjlljKMJkl%LKlqqmJJlml%%kk%PQNlpokJK%%%%jlnjLM%llK
30850b3NMjkKMLJKOOLJjmj0j2j0kKJ%LMJrj1mJ0J3QJjLM%kkjj%KLkrj0mLPLjjj%%JKNNPLmrj0l
30784b2LJlojMPMJj%JKJ%nnlJL%kjjlpnLRQJkLQOjpqlJNOLknlKMjprmJ%kmKJ0J3OmpjOOjlKNLm
30712bpkMKlmjLJnolJLOJ0J1NknlJLMNOKknnmk%KKlqn%Kkm%LJmlRJ3Nj1j5nNLppKJ1PklMRMnql
30642gJjnl%JJJLNNLKjmnlJLNMJklj%LKJjknqokKNM%jkJNPLmpkNPjqp%MKjljKKJ%%%J%lpokJ%%
30567b0LRQJpq%LLLORMlpjLjpo%NOK%%nj1j0nJLKORMmpjPQkqnKONJklmkjKJ%JLK%KNPLlnk%KLN
30495A5PLlnmmmmjLJmqoj%jkkJLK%jjJNOM%jKONjmoml%KLKJK%lk%OPJlnjknpjNPJl%NNJmnmjLN
30420DPL%jJM%kkjjJOQNnj0nOQJrqjLJ%KL%nqkKOM%lqj0q%NPOL%lkKMMJKMMkj1j3pKNLjlnljLN
30349eMKMOJqj2pMQNkk%LK%%kll%%kk%NOKnojNPL%klJLLjqj0oKMKlml%JJMNMMNNMjoplKKKJJ%l
30276Cmmj%%kjJNMKklkkkj%KNPLlokLQO%lkkjk%NNJmmlkkJOROkpmjjkm%MNKjmnmkkll%LMLMMNL
30200A4JKJ%orojJkljLMKKLKmqnJMMLLL%ljKLkmlLMKmnl%KMNJlmJNJoqkNOLJJL%ljJ%mpnj%kjJ
30126a0OPMJjjJLKjkkJJjk%LMKlmlj%%j%JJkoolKON%llJNPOKmonjKJ%KNMknoj%jjJLKjkk%jjjk
30052fkj%LJlm%MN%lkLNLJj%JKJ%kklmnpokKLLLJlonjLNJjkkkJMPQOLjkmmk%jk%KM%nnKRQJnoj
29976hMLjnlKOMkqqkOPJnm%KJkkKMKknmkJLMMJJKMKkljKKjolKMLkmmk%MONjook%j%KM%mkKOLjj
29901dNPLkmllnnk%%l%NPMJJLKjkjLJkl%LLjlk%J%jlm%KL%mljjklKOOJmmjLLLKK%%jjlk%%kmlN
29826fRNmqmLM%k%MM%knml%K%jk%%jk%MOM%jkk%JK%mm%MLjkj%lkKOLnj1rkMOOPMjnlJM%kkjnqo
29751b8LQPJj%KkmkKNNJjmmkKOMKKLKjmkJJlon%KJ%KLJkkMPMlrn%K%kjKNL%JLJnj1pKJ0RL%jJ%
29679Fmom%KKKjmmjMNL%jkkjKKJlnkKNMLJkljLNKllJMJmmJMKjjKJlnjLM%lj%jmlJKKjj%Kjll%K
29604fMLjnnkLMK%%%%lkk%jKMNL%j%L%ljJMMJkmmkKMLjlJMKkoljjk%MOKknl%KKLL%lk%LLknnmj
29528hLLKjml%LOMKjmmmk%LNLJkl%KNMKjkk%%Jklkk%%jllk%KKJkkkJ%%jJKLJ%jkj%%KLKjnomjK
29453a6KKJj%JOQN%mkJJkllJKJ%KLL%lmlj%KKJ%j%j%kjjkjJKJkmkKMLK%%mnm%KKjjJLKJ%jjk%%
29379hJ%JKKKLLK%lmjKKklj%KJJ%%jkk%%KKKkljJJjl%LMJkjJ%jjLNKnpplJLKK%JJKkmn%NPNKjl
29303Ck%%%knlJMKjk%KKJkljJLKKJKKJllkKJ%j%jmmjMMJj%LKj%KK%nnkJ%%KLJ%JJJkmkJK%jJML
29228HJJJ%lml%jkj%KKJJK%j%KKjmlJLJklk%KJ%%lmkKNNLJklnljJLKJ%jjkjj%KK%j%KLKjk%Jjk
29153@lkJJKKKjllkkJKLKklkKJjkJJJ%KNN%mlJL%lkKJJ%%%jljKKK%%jjjJLLjnmjKJJj%jJJ%%k%
29077@KLKjjkjj%JJJJK%loljKJLKL%mokJKJ%KK%kj%J%%KNL%llk%jklJMMJkmkJJ%JKJ%jj%K%k%J
29002BjlkKMLkmkKLKJjkk%JK%jjJKJ%J%jj%%%kj%%kmlKK%k%MLjlkJ%jjJL%jlkjkjKKK%kkjjJKK
28926gKJKLJjk%J%lkj%jj%JKKKLKkll%J%k%J%jjKLJ%jjJj%KLJkljJJjkjJJJkjJLL%k%JJ%j%Jjm
28851bljLLK%%%kk%LLjllk%%%%JJj%%JJJJ%kkj%J%JJJjkk%JKJ%j%JLKjlmjJJJ%%KjjkKMMK%kl%
28776BK%jlkKLKjk%%jj%JJ%%%J%%JLJjljJ%j%%JjkjJKJJjklmjJLLKJ%kk%JJ%llkjJJKJJJ%%j%j
28700b%JKMLKjk%jkkjLLJlk%J%kjJ%jkj%%jKKJjkkj%j%JLJ%%JLLJJKJK%jjj%%JJJ%jJJ%kopnjj
28625gjlj%JJ%J%jjJJK%%%%%jJKK%j%KKjllJKLJJ%jkjjJJKK%%jJKJknkJKJ%%J%%jkkj%KJjkJKJ
28550a%jJK%j%KJjljJK%jJKKjj%%%%%%kk%KK%jjj%jk%%J%j%%%KJ%jkJK%%j%JjlkJLK%%%J%kj%K
28474@KK%jkj%jkj%K%%%J%jk%KJ%%JKjkkJJ%k%JJjj%JJj%JJ%j%JkkkJLK%%jjj%%J%%JKK%k%%Jj
28399A%%%jjjJ%%j%jJJ%J%jJJK%kkjj%%J%%%%%J%KJJjjjJ%kjjKJK%%%jjJJ%jJKJJj%J%kjJJjk%
28324BJJjk%%%kl%%%%%KKjkjKJjj%KJJkk%JKKJ%j%%%j%J%%jJ%J%%%%%J%%jkjJJjkk%%j%%J%%%J
28248bK%jj%%jj%%J%j%J%%%jjj%JK%j%%%%%%JJ%%jkj%%jJJK%kk%KK%jJJJ%%%J%%%jj%JK%jj%J%
28173@%%JKjj%J%%jjJJJ%J%j%%%j%%J%jj%%jjjJJ%%%%J%jJJJ%j%%j%%j%%KJ%%jJK%%jJJjjjj%%
28098B%KKjljJJjljJ%jkjJjj%KLKJ%%%%%Jjkj%J%%j%%%%%%j%%J%J%%j%k%%J%%%jjjJJJ%jjJKJJ
28022A%%%%%J%%J%%%%%%jjj%J%%%%J%%%J%jj%%%jjJJ%jJKJjkj%J%J%%jj%%%jJ%%%jKKJ%j%%%j%
27947B%%j%J%%%j%%%%%j%%JJ%%%JK%jj%%J%%%%J%%jjjjJ%J%%%j%%Jjjj%J%%J%%jj%J%%jJJ%j%J
27871BJ%k%jJJJ%JJ%%%j%%J%jJJJ%%j%%jjJJ%%jJ%%j%j%%%%%%jJJJ%%%Jjj%%%%jJJJ%%%J%j%j%
27796F%%%Jj%%%Jj%%%%%%J%jJ%Jj%%JJ%j%%%%jJ%%jj%%%%%Jj%%J%%%%Jjj%%J%%j%J%%%J%%%%j%
27721GJ%%%j%J%%%%JjjjJ%j%%J%%%%%jJ%J%%%%J%%%J%jj%%J%%%%%%%%J%%%%%%%%%jJ%%%j%Jj%%
27645I%%%j%%%%%%%%%%%%j%%J%jjJ%J%J%%%%%J%%%%%%%%%%%%J%%jJ%%j%%%%j%J%%%j%%jJ%J%j%
27570IJ%%J%%j%J%%%%J%%%J%J%%KJ%j%%%j%%%%jKKK%j%jkljjknnlKLLK%%%%JJK%J%%jjj%%j%jJ
27495Gj%j%%J%%%%%%J%j%%%%j%j%%%%%%j%%%%j%Jj%%%Jj%%%%%j%%%j%J%jj%%%jj%%jj%%%%%%%%
27419ej%%%%%%%%%%%%j%%%%%%%%%j%%%%%j%%%%%%%j%J%j%%%%jJ%%%%%%%%%%%%jJ%j%%%%%j%%%%
27344a2%%%%j%%%%jJ%j%j%%%j%%%j%%%j%%%j%j%%jj%j%j%j%jjj%%j%j%%%%%%%%%%jj%j%jj%jjj
27270c8kjjjkj%jjjjj%jjj%j%J%J%J%Jjj%%%jjjjjkjjjjjjkkkjjjj%JJ%%%%j%%%%jj%j%jj%%jj
27195h2%j%jjjjjjjjjjjj%jjj%%jj%%jj%j%jjj%kjkjjkjk%jjj%jjjjj%jjjjjkjjjjkjjjjj%J%j
27121a44jkkkllklnopoooopqomkmnqrj0j2j3j3j2j1j0romk%%%%%%MPQJ0J1J1J0NKjkjkklkllkk
27059c14llllkllnnnnonmnnnooppppprqqqqrrrj0j0j0j0j0j1j2j2j2j2j4j4j4j5j7j7j8j8j8j8
27006g71j9j9k1k2k5k7l0l2l7m0m3m8n2n9o3o6o6o4o0n5n0m8m6m3l9l7l7l7l0j3J0L7O8R7J25
26970a662J46J62J78K00K21K35K37K33K27K23K16K05J89J72J53J34J15R4P6N9M2K6J0lj5k6l6
26943A811m3m9n3n7n9o0o0n8n7n5n2n0m6m4m1l8l5l3l0k9k6k5k3k2k0k0j8j7j6j6j5j4j3j3j3
26907E91j1j2j1j0j0j0rj0qrqqqqppqopopnononnnmnnnnmnnnnmmmmnmmllnmmljkjkjklmmkjjKK
26841B55NNNNMK%jmmnoonoononnonmnmmllllllllllkklkjkjkjjjjkj%jjjj%jj%jjjjjjjjkjjjk
26768A16jjjkjjjjjjj%jj%jjj%jjj%j%jjjjjkjjjjj%j%j%j%%j%%j%j%%jjjj%%jj%JJJj%kjkkkk
26694F2k%jkklkkkkjj%%%%%%j%J%%j%%%j%%jjjjjjjjjjj%j%%j%%%%%%%%%%%%%j%%%%%%%j%%j%%
26620B4j%%jj%%j%j%j%%%%%j%%j%%j%%%%%%%j%%%%j%Jj%%%j%j%%%j%%%%j%%%%j%%%%j%%%%j%%%
26546F%%%%%%%%%jJ%%%%%%%%%%%%%j%%j%Jj%%%%%j%%%%jJ%%%%%%%j%%%%j%%j%%%%j%%%%j%%%j%
26470c%%%j%%%%%%%%j%%%%j%%%j%%%%j%%%j%%jjjj%%%J%%%J%%%jjk%%%J%%JJLK%kjJJJJ%%jjk%
26395a0j%j%%%j%%J%%%%%%%J%%%j%%%j%%%%jJJ%%%%%J%J%%%%J%%%%%%%%%%%%%J%%%%%j%%%Jjj%
26321a0J%%%%%%jJ%%%j%%%%%%%%%J%%%%%%%%J%%%j%%%%J%j%%J%%%%%%jJ%J%j%J%j%%J%%j%%%%%
26246h%%%%%%%%%JJ%%%%%%%%j%%%%%%%%Jj%%%%j%J%%%JJ%j%j%%j%%%%J%%%jJ%%%%%%%jJ%J%%%%
26171f%j%%J%%%J%%%%%jj%J%%%%%%%J%j%%JJ%j%%%j%%%%%%%%%%%J%%%%J%%%%%j%J%jj%J%%j%J%
26096ej%%JJ%%j%j%J%%jJ%%j%J%Jj%%J%%%%%%J%%%J%J%%jjJ%%%%%%%J%%j%Jj%j%J%%%J%j%%%%j
26020c%J%%%J%jkjJ%J%JJ%kj%J%J%%%j%%Jj%j%%J%J%%%J%Jjj%%%%%%J%%%J%J%%j%j%%%%%%%j%%
25945b%J%%%J%j%%Jj%j%j%JJ%%%jJ%j%%Jj%J%Jj%%%J%%%%%JJJJkj%J%%%J%j%%%%%%%%j%%J%j%%
25869A%%J%%%j%%%kjj%j%KJJ%j%%%%J%Jjj%JJjjj%%j%%J%%jJJ%%%%J%jj%%J%J%%%%%jj%j%%%%%
25794c%JJKjjj%J%%j%j%JK%%%JKJjj%%%%j%%%%%j%jJJK%%j%%%%%%%%J%%jj%%%j%J%%%JJJ%%%jj
25719Bj%JJjjj%%JJJ%kk%JJJ%%jjj%%%%JKJ%kjjjj%JJjj%J%%j%J%JJJjlj%KJ%j%%%JJ%jj%JJjj
25643b%JJjjjJ%Jjjk%JKJjjJKJ%%%%%jj%J%%%jjj%%J%jJK%%kJJK%%jjjjjj%JJJJj%JKJ%%%%kjJ
25568AJ%jj%KJ%jjJJJJJ%%jjkj%JJJ%%%j%jjjjjjJKJ%Jjjk%%%%JJJjljJLJ%jJj%%J%%jJKJ%kjJ
25493BJ%%%J%jjj%%%JJ%jjjJ%j%%%j%%J%JKJJj%jjk%J%jk%KK%j%JKJj%%kjjKJJ%%%j%J%%kkJKJ
25417DkkjJJj%j%jj%J%j%J%JJJJ%j%j%jjjj%%JK%jk%KKJ%%%jjj%jjjJJJ%%J%j%KLJkljJ%jkJJ%
25342b%KJJjlkkjjJKLJ%%%%j%JKK%JJJjj%JLKK%j%j%kkkjJj%JKJkkkj%%JKKJjjkjkj%jj%%J%jJ
25267cKK%kk%JJ%%JJJKJkkk%JKJ%jkkkJJJ%JKKJj%%jkj%%%k%%Jjj%J%JJJ%kmjJKJjk%JKK%kj%J
25191bJjjJLKjj%%%%%%%jj%KJ%%%%jk%JK%%JJklmjK%%%%J%JJJ%kmkJLL%jk%KLJ%%jJ%%JJ%%JJ%
25116Fkkk%JJLKJkk%KKjkkjjjj%j%%KJklkJLKJJ%%%%KLjlml%%J%J%%%%%kjJK%j%JKJ%%KK%kj%J
25041C%KJjjjK%ll%ML%kjKK%lj%%jjJ%kk%JJ%JKL%lkj%%%LMLjkk%JJ%%jkk%JKK%jkjj%JJJ%jj%
24965CJJjlk%K%kj%JJj%jkkjJJjjJLL%kj%JKJJJ%%%jjkj%jlkJLK%kJKJjljJJKKK%kk%KJjljjJJ
24890b%kljLMJkmkJKKKLKK%jkk%J%jl%KL%ljKJjl%LLjkjJ%lmjLK%j%%K%Jjkk%JJJJJJjkjJK%lm
24814gjJLMMJmnkJLKjjjJJLK%%kjj%%%JKKJJkkjJKKK%J%kkljJJJJJJJ%jkj%JJjkjJJ%jjkkkkjj
24739gj%LOKkmkJJ%k%JKKJj%JJjlnlLMJmmjJ%jjLNKjk%JJJ%JKKJJ%j%%%kll%JJllkKLL%JJ%jmm
24664ikLNNMK%klkJK%lmj%%%%JK%jJKK%kj%jlkjKKJ%KLKjjjJJjkl%KKJjk%JLJknnk%JJKNLjkjK
24588AKjmkjkljKNKlmkJ%mkKNNLJ%jmlJNNJmnlJLJklkMPM%mljJ%LNOJlml%jKLM%ml%LLjmomjJM
24513aKJJLNKloljjj%KLJ%JJjmmkjjkJNLjm%MNK%%Jjmm%LNL%jjkkkj%JJ%KLMLjlj%%jk%%lmkKM
24438CKkmkjj%K%kkjJ%kjKLJ%KNNjnol%%JK%jjKOMJllklnlJMJ%JML%jkjlm%NOKmm%KJ%%KK%kkk
24362ckjKLMK%jkjjJJkljKKK%KLJ%%%%klkjJJLLjoqmKKJjLOMknolk%JNLJkjJJ%jJMLJjkk%J%lm
24287flJONJlnlj%j%%JLK%%jjlk%NPKmnkLMK%jkj%JJjjJLKJj%jlljLM%mm%MMKJKJklJNOJmnk%K
24212H%jjlll%MOLjll%JJj%%kmmjK%mljKNOOOLjj%kopmLLjljLLkjLPMkom%jlkJNKknkLONKll%K
24136EKjkllll%LKjl%MMjk%LK%jJL%mljJ%kJLKjnmj%KKK%jjJKLLKjmm%LNJlljjkljJJ%KLMLJ%j
24061Gkll%J%llj%LMMKJjllm%OQKoj0nJKjjJLMMLKkojORNklj%mojLKlmjMLj%JJkljLJkkLNKlml
23987BlomJMJlmJLJk%PQLmmKRQMknl%K%nm%ON%nnjKJjlkl%%%kl%LMJ%KLJlmjJKjjLNN%lnlj%JJ
23911FJjkj%KJjlm%KNMKLJjnnk%jjjKMJjkJLLKjkkk%KLJjkkklkkkk%%%kljKNMK%%%jjlmkk%%k%
23836a5LNMJj%%kkKOOKlllmolKMM%%JJ%%KJknmj%%%JLKjJNNLmmjKJknom%LMKJKKJkm%L%npjNOK
23762bkjJjmnjLL%%JKJJLLMJjkjJ%loojMOLjkkjlkLOMjnmkkjJLJlmJPNjmlKNNKjnqlLOJoj0oJO
23687a7OMKJ%klmlKPPNK%JK%kkknpnJMNK%kllkKLKJJKLMOQNlqmJLknjOP%nokjlkJLJklJKJ%JKJ
23613IllkjkljKNMJJ%jnolKPQNjopmJKJkkmmnm%MOONKjkkj%%%%klkkJJLMNKlnm%jmpojMMMLK%J
23538a0KLJjnokKOQPLlolKNMkoo%JkpnMJ1Qmj0nNP%pmMPJnnJOMKKJkmnkKLJjopplLOOLKNPN%nn
23465alLOLknjNQMkpokMNLjmmjK%JKNONKjlnk%Jjom%NMkkLQMlplKLjpqpnkMRJ0NlrrmKKjpnJPP
23391eKnpnjPJ1J3P%lklnojMNlqnLPN%KNMkqrlKOQOLmqo%NPKlpom%MNLlmjMOJprlNQM%KNNJlmo
23318HprlOJ0Noj1pJOMJmppm%LNNLKj%KNLknlLPPLjkjKNJmqnJKkolKN%rrlMRPMKjmplNJ3J6Oq
23247B1j5j2lLJJKNLjkLPKmnKQLnmJNjoqkJJ%KLKlllmrpJJ1J3PJjjkmkLMJlmlklKNNJkjLMKJJJ
23177A7jll%jlnjKKjkKMKlnjMN%no%NPL%kj%%kkJMNM%lkJKLKK%nj2j3nPJ2Npr%QOlo%POjm%MNM
23106B4ML%mmJMJjJMJqj3qMPLmk%%momjknkNQPKjKMMjqj2oMJ1PlpkOOmj3j3mMNKkkjLMNM%knoo
23036a6kKMJjJMLjoplKMOMjno%MMLNJ0QjrqlJlolJKlnKRQLljJ%nqkLMknkNRNknjMLmroKPMjk%%
22963ij%MQOKkk%KKMMKjlnpokLLlplPJ2OlnJQQKjmmnpl%J%klkKMN%pqlLMJ%KLJnnJOPOON%prpJ
22889ANPOLlpmMROknlK%mnjK%nqn%LJlnkNJ0J1Nloo%LNMJJJLM%lnl%Jjlppnljj%LOPKmmJLJoqn
22816a7jLPRRJnqkNN%mnmj%NQRMlqpkLNNLOOLlplMMjnjOO%nlJJmpojKNMLjlKQRkj7j8nPPkrnKQ
22743@OKj%JMML%mnlk%%KK%lljKMMJmnlLQPMJK%loolJjmpokLLKjKNMnj2j3lPROKJKJKLLjnmLOJ
22670A0prkMNJjmmnKJ1J1Jj3j5nMOK%LKkolLLjpmKMJljNJ0RLlmkJ%llJNPJmnkKK%ll%LM%oo%NK
22601aoqkPRLnomJOQQKmmKN%j0j2o%J%JQJ0Mlok%JLNQM%jjJJJKLjnqmKMJkl%OQMknl%lj2j3lJ2
22531dJ6QlpkL%onlkljLLjolOQJppKQOKJJkqrjJ1J2Lnpl%lmJNJpj0lOJ0PLKK%mlj%jmolKQQNm
22462Fj0r%QJ0NMKJlqpkkljPJ2PlqlMMmn%ONlomJJ%j%jjJOOJnojMLlqql%KjjJMNK%%jlqj0mLRQ
22391hONKknn%LJlmjLMK%lnnjMMjmk%J%LMJnqlQJ2Q%lllkKMLjoommlJPRMJKNNKkjklm%NOMJMPK
22317C3pj5j2kNOjrj1oNJ0Ooj0kRJ4QKjjknok%J%JNMK%lnnl%%nnMJ2J1kj1qMQKpoLROKlk%ORPn
22251B6j5j4jOkj3j5mPQKKQJ0Mmn%%mpnKK%l%OQOKjkJNPPL%jjklmprojKKjjMPMnj0pLQPjmmk%k
22183gljKLJKPJ4J3Kj0j5pJJmoKRJ0M%JKjpojJlpnLPNJkmonn%KKKMPRPKnj0j1pjMLLLNNJnqp%M
22115eNLLNRPkj1j3nNPKpqlKKjnnj%JKLLjmmKQJ0OjonkLNLkqroJNNLLjornKNlqkJ2J5Lj2j2%J1
22048a1Noj0lNPK%jLNRRMlmLQMqj4oPR%j0j3pjMMLjljLPOKjJK%j%OJ0RKpj1rlJ%lm%KKMORMnj1
21980A0oLRNmrplKMMJllk%jljJjnojNPL%KK%qj2q%PRNlolLPLkl%L%k%NLln%QPKlkJkkLQOoj2pM
21908bPkrpJOJpj0pJRJ4J0JnmJJmnJPNnrkQJ2OJKL%lmloroNJ4J4LprmJKjjJLOMJknoppnkKMKK%
21839djlkKMJoo%ONjjMRMoqkRJ0LprplKQJ4J1Jpp%OOMMPOjj0j2qjKjlpplMJ1J4QknlLL%mlmnoj
21771ENOkrj0nlnnLJ1J4QKj%lpqmJLJkopnJMNL%k%LMMJ%%MO%qj0mPQ%ppljllMPLmnKPMlojLK%M
21699dQQMjkkmojPJ0NornMQMmplPJ3J4Onj3j4rKJ2J3Opj6j4qjKML%no%PPjooJLJjKNM%llj%JKK
21633BknkMJ0P%nlKMNL%oqpmjjKQJ1Ooj3j0jNJlm%JkqpLJ1J1LnnJMKmolMMJjJNMmj1j1oJMKjll
21566b9j%KKJ%j%KOQOK%KMJoj3j0%RRLkklklKMjj0j4mJ1J8Qpj3mPJ2QMJjllJNLlpnjkmkJMJjJL
21500fjooJJ1Rjj0pjKkl%RJ1Olml%jmkJL%%JMLkqqmKPQP%qj3mRJ5QnqkM%qqLJ3J1%roJOMjmnj%
21432ejonJOO%lKQLoj0JJ0Orj4%J6J6jj3r%JpqJJ2Roj6j2%RJ2J0LnrnPJ2QkrnKLJ%LLLjJKJpj4
21370a0j2%J2J3Mln%JmpmJLkolKMKJNRP%onklnnlKNQQMknm%JmqojJjjLQJ2J0MmqojL%orlLKlpk
21300b8ORNJJNLmrj0mOJ0RM%j%%lnkKJmmLROlrnJLLJjoj1j0jRJ2Nj%K%ooMJ0Pmj1pJPPM%mqp%Q
21233a0J3Q%noppojNRQNMM%ormOQKmlKMjnl%%ooLJ5J4MoqmJKMKJmmljlnljlrpMJ2Rkp%J0J1Mlj
21165A1%jkJNJrj4pKMjm%PPJmjNQLlnnmmljLQPLkKQRKj1j4rllmKRJ0%olORKnlLKlojMKopJQPkp
21095alMN%omJLMMNMkj0j1nKMJJLNLmmKQMmpmJ%prkPJ0N%jjkmlKQJ0NjprplKNOOLjlmkKMONLjn
21023A6nkJJkjKKjooJQJ1P%nqrqnkKMNMJkjJLLLNMKmoopj1j3nORKj0j1JJ6K2J3Kopnmlk%KK%lk
20957gKQRMpj2rkjlkQJ7J6MrrJPjj2j6pMOJjMJ1J0LljLKjlkkmnljkmmNJ5J7Qoj0jJ0J0jj2rJPj
20895B0j1j3mLL%MJ0J2KqqJN%on%JnplLKnojMLjJLMkkNJ4J3KoojMK%jloro%MLMONjj0j2oLRRQM
20829B2lppJJ0J3QjonJNLkqrnmopjPJ1OlqoknpmNJ3Rkj2j0mLL%KMJnrpKOM%LJ0J2MnqmjlpnMJ2
20764dR%olOQJqj0%J1J3LrqJJ2Qmj3j2kLjrj0mMRRPLKjjmoqrp%PQNkkJOO%nlLJ0RJmojLMKmpol
20696hKLLMNJmpqmKPJ0RMlprrj1q%J1J4MoqKJ3J2Kpoj%mqojNMjppJJ0J0jj4j2KJ5Roj5rNJ2J1O
20635ANKlqlOQLnrm%jkmlmlJQJ0Mpj3oMJ2J1Ojnonjj%JMQQLlppomlk%KLML%%JLLjmkKKkrrmKKJ
20564b4LPPkj0j1mPRMkkJLMLMLKmqpkNRJ0PLkqj1q%OOMLNMlj1j5j0jKJ%KNLJkklmkLNjpqlMQQQ
20497hOKmnlkmmJRJ3J0LkoqpkNNjomKMkokMOJ%NRPkqpljmnmJOOKnqnKQRPM%nj2j1nLM%jKMKjkJ
20426a2L%pp%OJ0J0O%qj2j0jPRNkqj0j0njLJ%kjjKMORRNJllljkml%OQPJnppkOJ3J3Lqj1mNPjq
20361dj0mKLlroKPMjmLJ0J2OJMPP%oomnrj0nMRJ0Ojoonjjklkkj%LKjoplLMNPROjrrkOJ1J2Plj3
20294Bj6qKPLkmmnlLRJ1OjKOOJook%KMMMJjkmpo%LJl%RJ2%j4j7lQQjkOJ2Q%jKjrj3q%LJ%JJ%jL
20226AOMjkKMJppjPRNlj2j6j3JJ3J6Noj0njkk%JkookMONPOMnj3j4nPJ5J1jj2j4q%LMOJ0J2Omqm
20165a1OJ3J2NmppmlpqlOPJooJOOJ%kmolLPLknqj0j2lJ2J9J3kj0pj%llLOMjjMOMJKL%nj0qokLO
20100a7PMK%KLKKKMLkmm%NNJnpmKLoj3j0JQNjkLPMlnmkk%QJ1RLJKMJlmkkopmjkjLRJ0Lpj0mMN%
20030DnojPRMmqnJNLJ%JjkmkklnmKNNJjkJPJ0QjpmPJ3Nrj7j2kMMLNLnj0qJMjj2j3kJ1J8J1%qoj
19965a0NMloo%LLJ%%JKJknokMMJmm%LNNMLjkKMMkplLLnj1pKPLlmKPQPMjopkLMknjMPKlnmjKMMm
19892Aj0qMJ6J7Poj3j4rlNQNlrnJNKjjLJknlJLNPPNLJ%korlOPkj2j4nORPKknok%KJJNOJnpm%kl
19824b1kjlojQJ5Pqj3jJ2J4MomjjjMJ0Rjj0pNJ1OlmJM%nnkjmnJQRKnoJQRJpqKJ3J4Ooj3j2pml%
19761cORQKqj2j3pJNOMLNJ0RKoj1oj%nqkJ0J8J4Joo%Mjrj3j0%RRKpqkPPKklKMKJknpnKPNko%ON
19694A1knLRJ0Jom%K%lnol%MLlnlLNJnn%LMJnj0rJJ3J8Roj0%J1J0krn%lj0j1mJJ%MJ0J1%pnLLn
19631aj0kRJ4PnqnkkJLMJnnjMLJjLOQPJnj0j1nKN%qj4qLJ4J4RKjKM%lnkJK%kJLLJkmlllk%LMKj
19563HlkJLJjkjJKMML%mpnkjkj%MNMJmqrkOJ0NmqkNPKnollmmJMJqj3pPJ7J9Rlj1qm%j%MRRKnnJ
19493ANL%%NO%qj3j3rlNJ2QJkNJ4J3JpmLLmp%PMnpjNkj0j2lPQMLPOKnrj1j3j0jJ0J0LnjONnj3n
19431a6PJ1Ml%QPmj1oMRLmmJKjm%OQKmmjLJkmllnnlJJ%KNROKlkJKkppmJLJjkllkJMLK%KJ%mlKO
19358ANlqnLMJmlJJj%LOKoqjPJ0PJjk%MROlj1j1mLNLKL%npm%K%KMKlpnKM%kJLK%%LM%mm%LJkkj
19286ClljJKkljMMkonLPJ0OJoj2j4rJPJ1Q%mmJOJqj0kRR%pnKOLkljLORQKpro%MNOKnj0pNJ0Lj1
19219@j3jJ4J6PlqprokLKmmJPQLjlllmkJKKNPPjon%LkoojMM%nnkNRPJljLNJjljlonl%JJLOPNJj
19147A2jkmnkKLKJKLK%klllnnlLQOlrnOJ4Rmj0mNJ0Lmok%%kj%joj0pjK%jJRJ1OnoJRPlj1qKPNk
19078BkKNKj%LOOL%nj0j2nLP%j0j5j1JQJ0PNLL%jljjJK%jKMNNMK%krj3j0lMMkolLOOMOO%rj2oN
19012hRPJjlmmjKKjlLRR%qqjNOKlprrlJJkmjJ%%KJ0J5J1Jqj0pnk%LMLMPRKpj1oLNKljKMK%jJKK
18942A1J%nrrmNROJlmkjKOPLjl%LKnqql%LNNLkkKQOKmk%JklJOPKnj1j1pJQNkqnLQMmn%MKlmjjj
18870f%LOLjjLQOkpoljjJMMKjllnrpkMONJJJJ%knpolJLMLKjno%QJ0Lqj1mNRPLK%km%KLjljKKo
18797ej1pMJ4J7Qmj1pJNLmnljmolKNL%JMMLKLNJnolK%k%MLlpmMQNjnmjJL%nroMPJnnJOM%JNOJl
18726Fl%kkjML%mllrj1lJ0J4Kj0pJ0J9Rj1j8oQJ2OK%jpj2pKPMkm%MOOMJLNJqj7j6mPJ0Nj%JKjk
18664blkjjKLJj%JkopkMOJkk%JkkjknlOJ2J1Joqm%%%MRJ0OJmonl%KJ%JJklkj%kmkLQQKmqnJNMl
18592cqo%LKjj%jlkMOKnqlMRPKlpqlOJ1J0OLJjmnkjknjOOJpnLMmqkJ2J8J0lj1j1j0oJQJ0Lqq%P
18525aM%kLKmj1qjNMlm%NQPJoj1pKJ1J2NknkJLJjkJNNJnmMPMpj2oKOLlpol%LL%nmJML%JLM%llL
18455aPN%mlJ%knmJNN%ml%MJmmKRRNlomKPQLmj0p%NLkpojLRRLlplLOjooJLJonkLjonJPOkj0qjN
18382a4MK%NPNkpplKPJ1J0Moj1rppnkOPNkkJJoj0nNJ2J0MmoplMPOlqo%MK%JMMKkkkk%LOL%%KLJ
18314A0lnjLLKJkmkjJjjKOOkrj0m%JKNRPKjJJknmJKkmkLKmn%RJ1PNKkj0j2pKL%kLRNmj1pjK%KQ
18244HJ0Nlpm%jmjKNK%j%%j%MNkj3j7j0LJ3J2Njlj%J%%kllJLKjkJJJKMMJmmJQMnroKMjn%OOJon
18175BjJjlkJLJkooojMJ0J0NjolJMK%jklnlMROnj1r%MLJKL%ll%JkokPJ3Qmj3j4p%LNMNLK%jj%j
18106g%JKMKkmkJJklJL%ornJNMLK%%JKjmmJOOKjKNLklKPNnj2j0mKNONKnj0j0nKQJ1RJpj0oJNL%
18037gjLNOKkoqpnk%KNOMKJK%jnn%KJmomLPPKjJMKlojOP%qpKJ0QLklpj1j0lNQLjkLOL%nnm%KMJ
17964d%jKjlolKNNK%%J%%%JJLLMOOO%qj2rjKlj0qjOQMKKMONJlpmKQRNJkoj0j2mMPLj%NQLlnoop
17893domjJ%%klonkMRJ1QKmmJNPKklkJLNNjprm%Jk%OPLllLNjqp%LlrrjQJ1PKjmml%LOPNkj1j5
17823a4j2lKMKMNKmm%MLmonk%JNJ0P%ooKPOK%JK%kl%J%lmk%KkoqlLRPKj%KNL%mpnLJ0J2OmomJJ
17752FkmKJ0J3J0%qj3j2p%LL%k%KLJlm%PJ0Olj1j0lLL%ljJJkl%JKKJLKJj%LL%llJLKjk%LL%mmm
17685AllllJKKjk%LNLjookMOOMMLjpoJONkpnJM%mlJK%jJLK%j%jlmJNJpj0lLLlnjNMjkMPN%JNPJ
17611A5qj0nMPLmqlLNKkjMQNkqj0ojOROjrp%ONLOJ1Pnj4j5nKK%KMNJKMLlro%MLjkjklkKL%jKNN
17542A0kmjOOJkjJ%kljKLLJkpokNONJlnlJOOjrj0lLKnplKL%kJJmrlRK0J9PlqnllkJL%pj1oMROk
17471CojOQO%lpqojJKjJNPMmpokj%KNMJkk%JKLJkon%LKkm%JjkLJ1J2Mpj1oJJjjKLLJ%%lmm%MOL
17399FknlJPOkrj1oKOPNONLknomlkj%JLPRRM%kmlnnkOJ2J1Jj0j2mNRLlponlkj%%JK%jlkj%klk%
17329a2JJjklkKMPOM%lmljLMKkmkLNK%jjJMMKlonmnolPJ4J0lj1qLQN%%MMJkjKNKmj0j2oLROnrj
17260gRJ3NnplJJjKLKnj1q%PRNJlmmk%LNLkonJQJ0Mkom%KJlnn%LLkonJPPKklllmkJNKjk%NNJkl
17187AjLMNKkrj0lNRMnj0nKONMOMJkl%knojNNkrrlLNLJKNNLJKJ%klj%JjonkMOLjmnl%MMK%KLKk
17114A1nnjjlkLQLmojNLpj1oLOKjkjkj%MLKj%KKJ%jkljKPRO%klmmpnjNONjkjK%nrj1p%QJ2J2Oj
17044Hl%MLkomJL%mom%LKK%JKNM%mmjjlnjMLjmlKNMJkmmjMJ0J0MlqqojLOOLkqqlNJ0OlqnKLjnn
16971a2JMJjk%LMMjqj5j1JJ3J4LnoJMLJJNPKjlj%jlmmjLOOMjoj0rmKNL%jKL%kJNMjpnj%llKOLm
16902irmMMjnkMONLLJlqmKQLmpkMMkolJ%lnlNPNJkj%LKJknnjJ%jljLJklJRJ2QjopmlkjKOOMjl%
16828eLOKjk%JkooKPRJorpmmqnLJ1J3NklKLkqpJPMjljMPPN%mqm%KlqqkLNLKjllJMKoqkOO%m%Q
16755a1J0NlonnkJMKlnlJKLMOMmqql%%MRQKonJLjmKJ0Plj2qJLJKRJ4OmqmJlqmMOjqo%PRQQMlnl
16685IKLkol%jlmJMJkkNPLJMPMnj1pKOJpqlLNM%jk%LJjnnjjj%LOKoplMNJ%MOLlojJkpoJRJ0Knm
16612BJNL%jJMKmqpkOPKnoJQOmj0qLJ1J0KmmljKNOJopkLMlqpjLLKJKJKKLKlnmjLK%kmmjKNMLJJ
16540A2jkkLNLmqnMPJnpnmopm%KJ%LNPNNOMkrrmKNKJKLLJKK%lkLPLnj0nNJ1PjqqnjJlpqkQJ3Po
16468Cj3qKQMjjLOLkmkLNMjookOO%no%LkomNRP%kjJklkKNL%jjj%j%llmlkmlJQJ2RKlmnkkJJJJK
16395ELMLJjmqrnjKj%LQOJjOJ2Rnj5j1%OLmnjjkm%K%npjOOjppkMNNJj%LOLknjLNjoojKLJ%J%%%
16323cMNOKkoj0j0lMMjnKJ1J3Jj2j2jQQJjKPOJnrqlNJ3J0%rqJRQKjMJ0J3J1QOPRJ4J7J6J2RJ0
16265A70J5K0K1K4L0N0Q3J24J68J99K08J82J27N2k4q4j23j41j47j45j38j24j06q6o6n1l8l1k1
16235A48j5rpqpnnnolLRJ3J6J8J7J4J0QPQRJ4K3L4L8L4K8K3K3K1J9J8J4Mqj6j6j0poJJ5L0L3K9
16188E48L8O3R4J10J09J01R2Q0N7L3J8J3jl7q1j10j11r9r0q5q0o6n4m9m8l9k4oMQQJ1J5J7J8J5
16152D72J0jj6l0m1m2l8l2k3j6qnrj7k3k2j4omnom%KMOQQRJ2J6K0K0J9J5J8K7M3O3R2J30J73
16109H05K03K09J80J21M9k4q7j35j61j68j57j40j26j13r6p6n8m4l3k4j6j2j1qkJlj0j1lL%qj1m
16073C0NKqj5j0LPLnpkJJjjJJjk%K%kJOPLlmJL%lkJOOLkmnnjLL%lkJKlprmKQJ0PKmmjKLkonJMM
16002A2Jj%%loqmMRQ%j1j2pJLLLNLJllKLJjLRJ1PJkmopo%MLkonkJKKjkk%JJKORPJmlklrp%J0J1
15933A8LoqmlnmJOROJlprrpmjKPJ1J2O%nmkjjk%LNNLJ%J%jnpolj%JMNM%lljKL%jlkjj%LPO%ppj
15860cNPJkml%jjlkjKLJjJNQMmqqnnm%PJ0Ojk%Jlrj0lLPMKJ%JMNMkonljkl%NNL%%KNLjnlKPRLk
15787B0olKNKlpqnJLLJkkkk%LNM%lmk%jjKPOlrj0nj%JMOLnplOPLlkJJlnjNMjnlK%lmjMLKJKMK%
15714@MPMlpnjjnnjNKnpmNJ0J1QKlnjLKoj1pLRKpqjNO%%JMLJJ%nokMOJooJOPJmpnKJ1J5J1jj0r
15646IjK%mmjKJjJKjopJQR%qpkKknjQJ3J0LllmoojPJ0NmmJNKnplKK%jLNKllJJmj1rjNKnkQJ5J1
15576B3kj1rj%mpmKLKjJKJ%%JJJKMNJkmjlopkMROLJ%kn%RJ3OlokL%no%OPjonJNJoj1nMRMlqlLP
15505IMjloppm%MKJ%J%jlk%klmKRJ2P%nlJMNK%kmmkJLjoqnKPMlqqn%KMKLMPQMJkllnmKOOkpmMP
15431CJnmKKlnJQPlj0q%KkpkNJ0QJlnkLPJ0MmrpKPO%klnomjMMJnnm%J%kkJNM%ookMPMJklmk%OR
15358cQNLMNLJllkjlpqo%ML%momk%LMNPMJ%jKMKmppkLLjlljkk%%%llKQRMjllnpo%OPKlkkjjJNO
15283aKlnm%JJ%KLK%llkJJjlmjLMMMNNMJJjkmnmk%KKJjjLNN%qrmLNJmokMONlnlMPMjl%JlpnJM%
15208fnlJKlm%NLJjMM%l%RJ2OnqomllKOOK%KLjmmJLKmnnnmkLQOLjJKJmnkJjlml%%%KNOLkljjkk
15133g%LLkomJOMLMNMjmJPOJk%NMmrj0mjlnn%LMLLK%lljLMKlmnkklnjJK%%MOMjm%LPONKloplLO
15059GLjlk%J%%kjjlpqnLPPLjjJJKML%oo%OMjmkJK%%JjnrnLQPL%klmkKMLKLMJlnjOPLkmnk%JLL
14984A2K%%jj%%jnoqmMJ0J1MmplOPJopl%%%LNLmol%kllKJpj2qKJ0QMKLKkkKLL%JKKlomjlpqJR
14914a5J0MkjMNjpmJNMJj%J%lkJMKlnkLOPPNJoj1j0%QR%omJM%nnKJ0J2J0Llqj0qjPJ0MnqmLNJn
14848A5kK%mnKRQlj0rkJjkNJ0Ooj3pKN%omj%mnkMNK%jJK%kmljKNMLjk%MOKlpoJOQOLknrrqmJNQ
14777a0PM%jjjjkjJjoqmKOLJJMKjjLNLlolKKkjOJ3J2LnnJMjoqmJMLLLjlnmjjkllnpplNJ1J0Lkk
14707c%JkmjLMKjjLN%npokKPRQLjjLL%oonlmnjOO%kJQPnj7j9qPJ4J3OjmkLMJkmkJJKNPMkol%Jl
14635FlLQNmqn%%klKQOLjjkprmLOM%klnqmOJ0Npj0mPRKnlMOJqrkOQJoqn%J%%MOPJnqmKNNL%lon
14562a6%PQOKJLLmqrnkk%NQMoq%J0J1LllkjkjMMjqqjOQOJlpo%POlj1rkK%l%OQJpqkQJ3RJmnjJJ
14492BJJJkoqnKOPNJlqrmNRMnpkPJ0PJnolKJlmjPJ1Pkpo%MML%mmlJJ%jJKjonJQP%oolllj%JkkJ
14418a5OQMKKNPKoj1j2mMJ1QJ%KL%ormKKjmkJLKMMLknkMPNlj0j1ojLLKKKJlnmKPJ3J2QjqqkJJl
14351A1nlkkmlJKJjJJlroOJ4J2jrnKLnqnKK%k%LjomJNKln%LNL%KMOOK%%%j%JLL%npm%LKJJLMLJ
14279A6lppnjJKJ%%lmmjLMMLMJjlkklmjNQMmnjMOMKLJjnppookLMMJ%LLJkljKOPNjnmljloolLMK
14205ikJNQO%pojOQM%kkmpn%KKmooonojNQO%%MQOJornKOOkppKPNjl%ON%kljkjJNKmqmLNLLOPKm
14129HrpnjJNPKln%ORN%lnokLMjqq%NLnmMJ1J1JoolJNPOJnmKQMlom%Jmnlkjj%JJ%%JJJLPPJqj1
14057ao%K%LPQKqj3rkkno%QJ1Nln%QQMkkJLjookLKJLOMmj0pLQMjkKL%omLRPjpolLOPN%mkJNMl
13986B0j0j1q%MKmojPJ0O%jLMkpkRJ1%j4j7pMOMJL%nrlNNjpmKKlpkPQNKJJ%jjKK%JMNLjmlnrq%
13917a4QQ%mkMPJkkKMLjmmnkJML%%JJkkJK%mnkLMK%KMLJlnmJQJ0Mrj5j1jOO%JMN%mponpqnJNMK
13846a9KPQMlqnJNMJJML%kJMLkpokjmnjOJ1QLjllk%%klk%%knnmkKOQPLjJNOL%klnpolLMLkmljK
13773g%lkKOMlj1j0jOLklKPMjlJOPKjkJNQOM%jkknpm%ML%k%%K%%lom%PNkqqJONkmjK%lkMOLnql
13699iLOK%KMMkmlJ%kmjNQPKllkjkljKM%npnKPPKkmnmj%KJ%jKLJlmKQJ1OjnkKONkpj0olKMM%lm
13626CkJJKJJkpj0nNJ5J2Krj2rol%NOLJ%NRROKnj0j1nKOJnm%ML%ljjklm%KLMMK%mljJ%%LOQKp
13558Fj0pKNjqqKJ2J2Lrj3p%OPOJmnkLOMLLOO%mmkkll%%jnmjJ%jLQRMlmjLMLjnnkORPjnnklqj0
13488inJL%k%MNMLMJlpnlJMOQPJoj1j0ok%KNQOMjlpnkKMLJ%jk%LNKllKOKoj2qKN%nnKPPMjkkJP
13415ERNknkLLjkJNN%oqol%KKlqj0oJOPOMLJ%JKMONKlmmkjjKNMkrq%QQjqpk%jJMOJno%MMJj%Jj
13341ImmlJ%j%KKKjkjj%JKOPQMjprj0pkLMKjjJJjnn%NN%lkLNKKKMkj1j6rNJ3J0K%LMjpp%LJmol
13271a3JLKKLLKKJknrojKJ%JKLKKKjlnljlnoljKLQJ1PKJPRMrj4rLRMlqrmKJ0J2MorlOPLjjkmnJ
13201eNKpj1nNRMmolj%KLLklKQRLklKLKkkklmjLMjqj0nKN%ljNROJmmJLMMLLKK%mqplNROJjK%kn
13127A0lKJmqoljj%MPMkm%MMKJK%nnKRQjolJjqj1p%MKJJKLKK%molOJ0PjkKM%rj1nNJ0QLlrj0q%
13058a7QJ1RKkm%NOjj1j5oPRKrrKJ1PkrolkmlJPQPPOM%nnjJ%knkj%kmpol%NNMKKKjlm%NPKmmkk
12988a2mmJQJ0Lnplj%KPRNnrqkJJMON%mkMOjqqm%KLNMjmlMJ0RLklnrj0qkNPPONMMMKlnm%NNjop
12916FmKNMKKKJoj1j1lKLlroJRJ1OkrrlMNJkLJ1J2Lpj0pklnm%%lnjOQO%kl%LPRNkolJL%lk%LMK
12847FK%jj%%lnjOOJprmMRJ0PMkqqmKNOL%oj2j1nNQMmn%MMJjkmnnj%%jKNPLmnkNPOLjmnonl%MP
12775dN%nmKOM%KNO%ppkKjnoJRQjj0j4pNJ2J1Mk%LO%mqnj%JJ%kk%LMKmpojPJ2J0KppkJjkjQJ1N
12707B3nj2oMJ0Nnj4j3jJ0J4MorlMMjljjlmjNO%pqkOJ0J1O%nkORJj2j3kQOmj0mMOKk%J%j%LNMJ
12643A8knomLQO%mmKMJoj0rlLOLjl%KJ%JNPJqrnJMLJLMMNONM%jkmoqmklqj0nJONNMLJllJOPMjn
12571A0olmlljLMKjlk%KJJJ%J%KLLK%kmolJOQRRNjpj1pjK%molJLMMJknmlmlj%jlnkOJ0QJjJMJm
12499@okNOK%OJ0Opj7j4jOJj0j3kJ1J4RJ%jjjJKjpj0oJMLLMNMjkjkkmm%%JKMMJlkKPLlrrlMPON
12432FK%kkJMKjnm%NNJlokKLkqj1pJLjnlKRJ0OLKMPNjprnLNjomKNlrj0kJj%QJ5Pqj4kJ2J3%j3r
12364a2%LjjQJ5Rmj1o%joo%ON%oqmMJ0J3PJKPQ%j1j5qjjljMRO%oqn%NPKkkJML%mpj0rnLJ0PLKL
12298CNKjkjlqj2rmLJ1J4J1Krj1pjLMMMjrqJJ1J2JomLM%mkKKlmJNLlnjNOKjjNPN%oo%QJ1Qjj1
12233B4j4oLJ0Pkj0qJRQkj1j1nKLlqoMJ3J2PknpnkMQPKkkJLkopmjKNNJlm%LJllJKlrrkOPNJjnm
12166a0JQRKopjKJk%OOM%%%kkJNLlpn%KJK%mrqNJ6J6Lj0j4j1qojQJ0QMJjoj1j2kOOJml%jk%NLm
12100a7qlPJ2J0PNMkj0j2oMRO%lmjLOOLjmjNROkpqnjLKjon%LJnj0mOJ1NprkQJ1PNMLJmnnmk%JL
12033A2%kk%%lmmjKKLKJJNNjj1j7j2KJ1J4PjlkLM%pj1qJNjj0rLJ3J1Ll%JjmJQNnj1mRJ4Mrj3oJ
11970a2PROKlpnjkmlKNJlmJMOMKjnkLRQjqnKO%qrjRJ1OkmjKjpj3pKPNlojMKjm%NOKnj1j0nLQNJ
11900a0%MJ0Pjj0rkONjnlNJ2J0Jqj0nLPLkrrmLQPJkJNOJ%MNJrj3rmklkMOKmm%LJj%MOMKKKkpj1
11833a0rmMJ2J5Rkrr%MKnpnl%%MNPNLJjlkJKJ%JKkqqkQJ1OKMQOjqrlJKjlmnmjMMJlppn%ORMjml
11762d%km%J0J6J1mj4j2nMMLJ%JJKLL%klmnolLPPLlnokMROJnl%JmojQQ%qj2o%LMNMJkJNPKklmm
11692DnlLJ1J2Pjqj3j2pKPMlolJ%kjMRP%nnl%JKJjlk%JJKNPOjrj1ojLNNONJjk%jlnmJLJllKQQ%
11622A2prmLNJll%LLkmnlkmpnjKKKNQQMkk%%km%NPKlkjjmmLRQjqoJNMKJKJknl%L%jjJLK%j%JKJ
11548IJKLKJ%jjklJOPLmpoJMJlnmmmomKQQN%%JLJlnnkLNOKlonlkjJMNMjnmkj%LMKkmjNRMjnmjl
11472CprnKOMJJNQMnj1ql%mo%OQNKJLKkkLQOjmkKjnn%M%no%M%qpJJ0RMj%jmqmMPJmkKJnpJJ3J5
11401A4Nmokkqj1rpqmMJ7J8Qno%LkojJ0J4Pkppol%LLlmLJ0J1Kpj0n%LJjnlKNMlolKLklKN%qpLQ
11335fKop%NMKMOKpqkMJmnKNKlmkJJNQQKmnlknmjLM%j%LLMONJkKPPKmljkqj0o%LKJLMkonKMJnm
11261f%MMMKLLJjlnnnmljLMK%%MPJpj1p%MMKLNK%JJ%mokK%ln%MLj%PRKj0j4pOJ3J1MJjlnmjLJk
11190DkJMKkkJQPLlmmmonk%lnkNRQKkk%jmmjJLJmolJMLkmnmjMJ0J2Omj0qljllNJ3J1KpmKLkpmN
11120cJ0RM%kjklopkNRP%klmmlKOJpr%RPkqlNMmoJRQjpn%KJKMMjrj0o%JkmnjLPNJk%NPOjmnkkl
11047gmkLPQMkoljknpm%%LOJ0Omj2pMJ3R%nolk%NQNlrojK%KPQKqq%QOmj1qJRJ0OLKKLLknpk%Jk
10976Hkjjnn%RJ0LorlJ%mnkJLMONJnonkjKOPLkkLQPjoolj%JJKjlkj%%KK%oj0qlMQJ1J1PJnpnnm
10905f%LONKJ%Kjkoom%NPM%kjjlnlj%KOJ1Rkj4j4nNOJlnmkMJ2J3Mj2j6oRJ2MljNN%llmoj0rok%
10839b8JMQRRMjonJONjon%LKJJLLJllprrkNQNLMNLjljLLJjlmqqnKNMJkkklkKON%kjLNKklkJNPQ
10765A7Mjmk%lqj0mNRQNLMJknk%JKJJjkkjmj0j3pMQMllKKkpmLN%opm%%KMOOMLKK%LMNNMLJoj0q
10694BlLLKKLJjj%KlqpJJ0RMlpomjLNJlmkKNMLJlnoppn%OJ1J0OMON%onJNKmqokJJ%%%klkjjkjk
10622gj%jk%LQPKmmjKLJ%%mj0rlLMKLRJ0Kj0j1lNNjjKM%mkLMjl%OQKklJK%kppnkJJ%JLK%jKNLJ
10551IJLJmqmJ%npJJ1J4NnplJjlmnmJQJ0Kqj1kPQL%%jllKNJoqjMJonMROlpjNOJkljJJJkkjLKlq
10480ipjNLkl%LNOOLlpqkNQPNML%kmljJK%kmmlkjMNLlplKLnj1pLJ1J0Jl%KK%%MOJoj0oLPPLkmn
10408Cnmkjlll%MNNPOKlom%JjjMQLoj3pNJ3J2PLkopkMLmj2j0%QPL%JK%%LOKknmklmonon%RJ3Pl
10339FojLJno%RPmj4j3lPQKjKQJ2Pkrj0mMPOlj0j2nMNJk%OQMmnjNPOPM%oqplkmjLMKjj%%jKMLm
10270Fj1r%PO%jLNMKjnqrkORJqqjNLj%NRMnpkMNKjjjjkopojNPMjkJNMjoplJNMLkmmk%KJ%klJQR
10195EJj1j6rOJ3P%%NQLpj1rnJMPNkqmNJ1PlqmKMLkmomKOQ%pqkOROJk%JKLL%monljjjjJJKJKKL
10125BKkoo%NNKkk%%JKNM%qro%LMLJJ%%%LMK%oro%PQMjljKMJkpqo%OQPMKJ%JKJlnlj%knjMQMJJ
10050A5MMkqojJjmm%LJk%LNLJ%KL%npmKMJl%LOKllKOMJjjmonl%%%JLJmlLRJ0MloomjNP%j1j4oM
9979hNJjMNjrj0jPO%kLPOKlnnlLOOJ%LML%jJjpj0nJL%mkKLjmmJLMjnnkMQMjljK%ljLMjm%PRMJL
9904B5QQMKPJ3J3RNKJPJ8L4M5N0N0M6L7J7ql1m3m5m3m0l3k6k1j7j5j2j0j0rjOP%omOJ0NllMPO%
9853G2jj%KOQJ0J0J7K7L8M3M2M0L6K8J7QJmj4k8l4l2k5j9j7j1nlorjJ7L3M3M7N1N4N1M6L6K7J3
9808F13jj1j6k0l0m2n2m8m0l1k8k6j9rkMRJ7K5K6J7P%KQJ3J6J7J6J1NPK1L9M3K5ql4m4l9l4l4
9766C73l7l4k8j9j2rqrqkMRONJ0J7K3K2K0K3L0M2N5P2Q6R3Q3O4M1K5J5QPRJ0Lj4l8o4q4r5r3q1
9722E20o5n5n4n4m7l1j7rnkJloqJJ0J4J3J5J8K0K1K7M3O1O5M6J4j3k3k1j5j1njJmrqpoj0j4j7
9677C70j6j8k1k3k1j5nQJ9K5K4J9J5J5J7K0K7L4L9L6K4J0jj4k8m2n1n0m5m2l9l6k9k2j7j2pKR
9637A59K0L1M3M6L7J9Mlnpj3k1l0l8m3l9k9j6j0qj1j0olkmmmnnmjKMMKKMPRO%mmjMJ1J3J6K1L3
9585A67N0O4O4M7J9rk9m2m9n1m6l9l1k8k4j8j0omkKLJlnlj%kljknomMQRN%opnj%JJLPOJmnjKJn
9527HqnKOLjlj%%%KLLlpnJOM%llkjkkJjk%NRPJmmJ%lm%MLjljKJmpmJMKjk%KMMLKjlklmoplJOMK
9451i%MPN%nn%NLjnmJLjmmJOOLLPQKrj6qLQJj0j2oMONK%jkjKMKjJPQMmrqmJNQNjnjMMlrqkMJjj
9378gOROlrpKQPjj0rJJ0J0NJjknroLOJnnJOO%jjlqqlKJkkNRRJkljmolLOKkjNQLnqo%LMjmlJMLk
9304aomLPNjmjMNJlljJ%kjjK%kmljJLKjnokMQM%m%KKjkKOLnrnMQLjjLNLklk%%jkj%MNKmokOO%o
9228EmMRNjnmkjJKMjnlLPJqj3j0%NQPNKj%NOLlrrmj%lnmJPOL%LOMmrq%NKkk%kprlKL%kOJ1J1Lj
9156A0jLKknpnm%KMKjKMNKlljkjJQRLlnLPKoj1oJJllJNNJjKLkpqkKLmrqlLNLJJLLKlopkNJ0J1Q
9083A4K%kll%JjnplNROjppomJPJ1J0Kqj3j0kMNL%JNNKmnnlmnlKMMJKNOjopkMOKkj%MLjkkJJlon
9012a1LRRLoplMPNmj1j3oLPKnn%ON%jKMKmnlJMK%jJLMJkolKOMjpqokLMLJJNQO%mjJjnpnlmm%OP
8939a0JolNJ3J1Llm%J%jKMM%kjJJmj0j3nOJ3J1LmnmkjJKJ%%MOMlqokKJ%kkJLLjoqmKQRNL%kllJ
8870GNN%ool%kprmPJ0Kj0j3lJ0J4PkljLMMNLjpmLPMlm%K%nnmmnkOJ2R%ppmnnlKOOMKJ%k%LN%oo
8799@kJjoojLLKMPQKmnjJjlm%MMjnnk%%jJKK%lljKJ%KLLLLMJormOJ2OlojNKmnjJnj2rJJ0RNLML
8726A3krqmMONLJKJKKjjj%kopkLNKllk%%kjjjJMK%k%LLlpmKLlrnMRLmojOPKlnolLRQLno%MLjmk
8651gJLL%jkmkJKJllJPQLmrnKPPJkljjkk%jkljMM%m%NPLkljJ%jLM%nojL%ljNP%qq%PNK%JjmoJQ
8574EQJonk%jjjJKLNMjmkMN%rj0lMOKJMNKnqpm%KOQQM%mllkJKKkpplKJormPJ0MmmMJ0NnqmJ%oq
8501a9jOPJljMKklKPRMkl%KJ%%JKJ%%KMLkrj2rjQJ0NjnnlkkJNQQ%ookNMkqpjMN%ml%LKllJONl
8429Ej2j2mNOKljKNLJj%%JLKKjjkmnnjOOLkmjKjml%MNLJLMMKJ%%kkjjlnnlJLKJjkj%%%%jKMLkp
8354fnJPPKllJNNMKJ%klmnnollmmkJNQPNJ%j%kmlLOKoj1oMJ0Ojl%KJkkj%jjJ%%%LOMkplKNJmm%
8280dOOLjk%JjkJPQLqj3j0jKKKRJ3Qkj0q%Lkrrl%KJKNLlomJMKklJMLknonlnmJNNjrj1rjMNOK%l
8209c7oqrqoKQPLKNJ3J7J2OKJK%kkkloolKMLJ%LMMJkjkjjkmpj0oJOOKkjNQO%onkJ%lkLQQMkkJK
8137Djmmj%lmjMNjnpnjNJ1J1OjmJONknlLMK%jnrqjOMoj0mJ0J3OmmLQKoro%JknnJNOLJKLJkkLON
8066A5jlJPP%nmjlopmKKJjjJKLNLjlkMOLJjKKkooJOOkoojK%nmMJ1RjqpLROjppmkkmmkMOMlpmLM
7992AlqrlKMLL%mmJQJ0M%k%knnkJjmm%JJKPQKprn%%%KQQNJ%Kjl%MKmpkOOKJLOLkkJ%qj1mONmrm
7917iNLln%M%poLQP%kknqmOJ2RJJOQJpoJOKpronnljLLJMRJ0NmokK%llJKjqj1ql%LLNNNNNLjprp
7844a6JQRKkjNPLlqn%JmqnLRPjqp%OQPKknnm%JKKOQMkppjMLjqro%NOMKJJLKJ%j%kmonkKNKjljj
7769ikj%NPOK%jkopkMNKk%MN%mm%KmpnMRQ%ll%kmkKPOKj%%kljLLkqj0ojKJMNMJJLN%qj2nNPMjJ
7694aLJnplKJlmkK%%KNM%l%NO%opl%kppJJ1J7J3PMLKjoqonnlJOMjolNPO%jJ%lkJNOJmponm%NRQ
7621A8Jorpl%jlkJK%llJNOKkljKMNLlj1j1nLOMKjmopkOJ0NkljJJJNJ0J0Moj1j0lNQO%ljLNKjJL
7553A7Jnro%Jkm%MKpj4j0kOPNMMKklk%KMMK%kjJKKJ%jmoqnkLOQQOJnokLNKlm%OOKmpnkjkjKNKl
7480dmlLPNKknomJLMNLKkmlJOM%nm%LLKJKjmnkKK%kkJLKKJ%llljLLjpj0rkLNLJKMKkonJOQQMjn
7404CrrnkjKMLjljOJ2P%l%KknmLRPKJL%mqlLMkokLKnqmLNJ%LLK%JLJnqkPRLlljjpj0oJK%%LQO%
7330DonKNM%mml%KNPLjnl%K%jLNLmplJ%nrlNP%onJNNLJJ%kl%MNLmrpKJ2J4Onrnjjl%RJ1Lrj2lO
7258BRMkljkjJjnj0q%QJ1OJmpqmJOLkpnKOPKkmlLOMknlMOJonlknn%PNkpmKLklLJ0QkqjRJ5R%jJ
7185B0Mkqj0pmmmjLL%jJNMkomMPNLLMLmroKQNlqojML%jjJLMLkqj0nKOOJklkkl%NQPM%lmlk%klj
7112fMQNlj0qkLKJjj%KNPNjnooqoKJ0J3Pjnlnqj0kQJ1NmooljOJ2J1LnmJMjpmKL%mjMNjoojLLKj
7043apj0p%PPKlmlJMPRO%npmJNLJlmlj%%JMNOKjlnkKMJnj0mOJ2PkpnjjljMOLjjJL%jJJkqpkKjn
6969a6o%MNK%JKKJJKKKNOM%llmnplMNjqnKJ0QKllljKNOJkkKM%llj%kkJMJkmJOMjnmkJLNMkon%M
6895GLkkjjnokNN%mJPOkqmLNJljLM%lJMLmqn%ML%J%jlnjLOM%npnjKPPMjljNRPkppk%kprnJK%lj
6819a6JLKKKKjmkMO%qj0kRJ1Kj2j4lJ1J7J0lj0qjLNNL%lom%NOMjljLLJkk%K%lnjKNLJLMLkqqn%
6751eKK%JKKJ%jlnnmJMNLjmkKOMlj1rjJ1J4Rjml%jnpkMPKlnl%jj%LMJmmlLNOLJklk%jmpo%POKm
6678gn%MPONKJlnnkKNKmppnkjj%jk%NJ0RLmoJOROK%jkjJLMLKkknnkJNJnj0pKRQJpqpnkKONjlM
6605@J1J1jj5j5jRJ0Kkj%mj0pkNOOQPKomLQLmnJMjj0j2nJK%%MNJlljKLMONjrj1mORKorlNO%nm%
6538gJ%%LNMmqpk%kkJMJjjMNJnmJNNMMOKrj6j3kQPLk%%JJLNM%kjkklk%%kjJKlokPJ3QkqnKOMKL
6464A0Kjml%J%kklnmJJ0J2NjkNPKqj2j2qlMQNmqmOQjqnPJ2MnojMK%KMKlnJPMlplNPKpj2j1lMPO
6396@KJLLkpqlMMK%%LLjlmkjklmmljJNQQM%lJOOJqj2pKRPjomKNKmm%LL%jJJjmmjKKJ%LONLjopk
6321bLLjomLPMlnjLMJlmmkKMLJ%MOLknjOOJopnKMN%oqnJNJkmllk%PJ3J0Kqj1pkjkkJPJ1QjpqjL
6248@M%kloj0j1mPJ0PJJNOKknoqpkORNkmKNM%kJKJ%kmnolMPQOMJkon%NN%mmkjlnJRJ2PkpmJ%np
6176cmKOMLKJnpnLQLoj0mKOMMJkonllooJJ2J5OopLJ0QkpmMMknnKPQKnj1j2qJPQPJklkKNNLJknq
6106@qlLQMjnm%KKK%KNQRJoqojlpqmLM%mkLLLJKK%llJNNMKNOJmpl%Jj%LOJrj6j4nJLKLPPJnpkN
6032a3OMKMNMlopnkJJK%jKMKknlOJ2J0JopkKKjlkjlnnjLNLJj%LLKJJKKLJ%jkkkj%kmnkMPLnj0r
5959a5lMOMLKLLKjmmjJK%JLLjrj1oLJ0QMJ%jljKL%nmjJ%%OJ0Omj0pKPKoqnjj%JLLjlm%LMjrj2o
5889c2OJ4J3MkjJJkmJNMkonnml%PQMjlk%%kkkj%%KMMLJjlkk%JKKMMKJjknnjMQQM%lmpqqnl%MQP
5816BLmqpk%JjJMONLLK%pj1pMRNmqmMM%jMQPKkjJKj%jkmkOJ0Pnj1j0omolMQOK%LLlqpkK%lkLMJ
5743hljLM%njQJ2OjmJL%j0j3qJNKJKQJ0PLjlooonm%NQOJmok%Jj%j%JLKKLOQNmj2r%QNmj1j0nj%
5674a5KLMNLJkmkKMJnokLLjk%LjonJOL%JLN%pqkMQPKjm%KLlrmOJ5J3Krj1qmJORNlqnJMknmNQMl
5602Gnl%%lnk%%JMQRNkm%KJnpjRJ2Mpj2q%NNjnppmJMMMMNKmroKONJJJ%oqnLOL%JLLjmmj%%KNMJ
5527GlljkopkKKknl%NPJ0J1O%klknmKPNjnjMKnqmKJpj2oMPOKMNJlm%J%mjLO%qj0oLPQMKJkopmN
5455a2J1Q%nnjkllKONjllk%kmkJOPOknn%KknjJ1J6RmrmMNjmlkmojMOJkkJLjmmk%LOOLmqoJLJJM
5383CROjrj1ojKNOPMK%JjlpnkKLMML%mnkJJkjKLmj2j2kQQjqoOJ2J1Llppj0j0nLPQNNOM%jJNNkp
5314HrkJJlpplKQJ1J0KmnkMNJ%%%kmmkk%%LKjmkLOMKMOLlojMLmrnNJ1Nmj2j3q%PJ1PJnpnjKOM%
5243Foqn%LNKkpmNJ3J0%qnMQJnnjjoqjRJ2O%kjjkkJJnqpkKKJMPNJmm%JjnnJOPJmmKQO%lmkJMJ0
5171A7J2J1Jrj4j3rkKK%mmKPNjmkJjk%MNJk%Kjqj0kRJ0JolOROjopj0q%QQ%qpjOO%jJLMMK%mmmm
5103gmlMJ3J5Poj0mLMjnlJLknnmnm%PRNkjOJ2Plj0p%NMNON%rj3rnj%KLJoj0oMRPJkJJlqj1nMPO
5035a2LLLL%mmLNMlo%PPKnnkKMLLK%k%K%orpkmj0j4pNJ4J1NKNONJ%knqnjK%kjPQKoqjPO%lJPQj
4963A3j0j0jQJ1LnplKL%%jkoqnNRPJl%L%molNQN%ookKKjlkj%JLNOLJNJ0Qlj3j2jPNjmk%%%%jnp
4894ckMN%njOQjj3j5qLJ1RMmpkNPjj1j0lMMjlKNM%klkkKOOKjJMNjnl%MKJjkmnk%JLPRPjnmkpj4
4824a5j1MJ5J2%p%OLqj2lONjn%PPL%%%JjjkjjLONJkkj%%%%jjk%%jl%KJmqpJOPLJJK%lpok%JjkK
4753a0LJmqkRJ5RjpkOPKnonmom%OOLlmlj%kmjKMJlokNRPjpmMROjolMPLkll%JNPMmj2j1kOM%lJL
4680DJmmLJ0Q%ppjMKlnkJ%oj1rjNOLJMQQMkjJML%mqj2j1oKPN%jLPNkomKKkpnKOQRQMkj0rnJjoo
4609a9%OPLj%LLKJJKLJjnolKONJ%LM%onJOLmrqllkjKKj%LQPKpj2qkNOJppKJ1J2Kqo%L%nlNJ0RM
4538A5%nrj0nKLlqoKQOJ%MNLjjLLjmlJJ%kJJmj0r%RRJnmMRPJkkkjKNOKmpmKMLJklm%NPMmj1j0o
4466a2lmnjOJ2QKnm%Jlqq%RJ3Ojn%PP%prkMLnqnMRQjnm%K%%LOM%kKOLmrp%MJklJKMLLL%mom%KL
4393EKJLLJlrrlLOL%jLNK%jJjmplLN%qj0mKKpj1qKJ1J2PJlmnmjJLMPJ0Qjrj1kPJ0PNMJnro%M%l
4324BjNPKlkJJmqmKPPN%prnMJ0NmnjLjpmMQKqqJRJ1OLJ%j%LMjorpmmlJMKlqojOROKmnjLMkolMN
4249DJnoJQQLlnj%JllJMMmj1j1kNMjlMJ1J0Mnpm%LLJjkloj0qjJ1J6Rnj2oMJ0P%oqplKMMNMM%no
4182c%OOjpqmjkl%MQPL%jjjjjJKLJ%kj%%%J%lqqjRJ1LppjONLJKjnolLM%mkJKJlmm%NPMkmJONJj
4107A1%%%jJOROKj%%%%jlpqollonjOPKjk%jllLJ0J0MklKOKormMMnj4j0NJ7J6Opj2rnJLL%j%LJl
4039EkLPNJ%MPMmrn%%jJNP%qj1qnlj%%lmjOJ0O%mm%LNMkorkOJ0Nnj0nNJ0Q%orn%LMK%kmjKKkqp
3967a6jLMLMPMnj1pKPLllNQNj%MNjpojJlpojLL%jj%KLMMjk%MOKnqo%LNKJJNOM%kJNNmj2j4oMN%
3895BmjLOMjnqqlMONKKKjrj3nRJ4R%lKMjpqlJJJJK%lkJMKj%LNKjl%KNMMKJknrj1rjMOMLJJkljk
3822almjLNKjkMOL%mnnnkKJno%RJ0MkjKKkl%LJklKMJnpmjJNOOLj%LOM%kjLQO%qj3rlJjmopojQ
3748a2J4J1JppllpnLRNlolLJjJOPkrpKOM%KQQJqj0okj%LQJ1OkplMO%qqKJ0J0KmlLOMjon%NMkj0
3680A5j0jPRNMMLmj0r%NKllKMjopjNPNLJkpj0j2j0lOJ0RM%KNNK%%kmnjJ%llLPNjkJLK%j%%jJLJ
3611B9lnlJL%%OP%j1j2lPP%l%MKmoJJ0J4J0MkjJL%mlLRQNKMOKmlOJ4J3RML%lojPJ1J0PQJ0J3J5
3548B01J5J5J2J2J7K9L8M1M1M6O6R7J34J66J87J87J55R7K8l9r5j36j62j69j60j38j15r7q2p1n8
3516B62m4k8j6j0j2j4j4pJJ0J4J2Pj%QJ9K5K4J7RMLQJ8L1L8L7L4K8K6K1J4OJk%MRPjj5k1j6lQ
3469E01J3J3J3J2J1QQJ3J9K2L1N1P4R1Q8P0M8L4K0kk7n1o3o9p3p8p3n8m0l1l1l3l0k1j6j4r%J0
3430D31J3J1NMQJ1RKpj5j9k1k1k4k7l0l1l0k5k1j4nKJpj6j7j0%LjmkKNK%PJ9K7K8K0J5J5J8K0
3383C31K5L6N7Q6J18J48J70J74J49J00L9k0p3j17j50j66j61j40j17j02r3q1o3m4l1k5k2j8rk%%
3350akjJKLNQQ%nlLOKlnkkoj1j0qpo%J0J3Mqj0kNMlmKN%omMQM%%OQM%ljkom%NOJlm%jmqrmNJ0R
3280gKnqmJNNPQQOLJmoolLNKoj1rlJjmmjJ%lJNQPKJKMJjkJLL%jk%jlkljKLKjml%JKMOPJqj2qKO
3206eNJj%knonlklJPJ1ROL%nj1j3pKRJ0MkonkJLOPRPJoqo%ON%nqnj%knlKQPM%jjj%KNM%mnjJ%o
3133eom%LMPQQ%qj2pLJ1J0M%%MMkpj1j0rrnMJ4J3OkmJML%JLKkpplJMNLJlmkJ%mojMNjj0q%RP%p
3065imNJ0PjokLOLmqpnljNJ1J2Lqj4rl%kkMQOjmm%km%PJ1Kj0j4pNJ1J2J0RNkj1j3pk%KLM%mn%Q
3001fQJopkLMK%KNKkolKPQKkmk%KMON%noonopmKPN%k%JjoqlMQNlonKPQNJkjKKJkk%LLKJJK%mpo
2925bl%jnn%OQLkom%JJkjKQRPKmnl%K%llkJNPOMkprqmkJJJ%JLNNJorlOJ2Pnj1p%OOMJlnoKQQ%n
2850GnJLjookjll%KJmnJQJ0LlkLNJoqo%LMNMKklllkJLLmj0j1nNJ0J0NKj%jJ%%kkJMMLJJKJjmmk
2779aKPJ1Plj3j3mORNj%LKmrn%Lkpo%MNKMNMjonkjkjMPMjmkJjmlMRNjnkJmrp%PPL%jmrj0mQJ2P
2708AjmjKKj%KNML%lnonkJJJj%JL%molMPKpq%J1J3NmlLPLnqlMMK%KMLlrqlLNL%%%%kk%K%mm%NQ
2633A1Lkmljjlmk%JjkJMMJk%NP%rj1nLMjkMJ3J1Mkm%JJ%lmolJKjm%QRJj0j0lLJnmMRRJoj0qmMP
2564cMmplPJ1PJlonkLOOJlpppjNJ0OloJOMklMMnj6j3JJ3J0jolJJJNJ1Q%qojJjk%%lm%MLkm%LK%
2495CKNNmj0j0jMLkqqmKPRNJKML%kJLJnojKkj0rJOLkjOQ%qnMJ1P%lj%jll%JNMjrj2pNRJn%J0J4
2426A4Kj1j5nOQMklkkjkkkjNQNjkKM%oj1oJMMjno%PJ2QJom%JkljLONKJjmnlJJj%LQQMlpnl%J%k
2354ClljKLJknom%LNNL%%LN%pj2rKRPjnjKLjkNJ0J0Kmmkjmm%Jmj0qKJ2J3KpqlJKJJLLlnnJNQOK
2284A2lppmjLMPOLkomLOLkm%JJkkKLKmqqmJNMLK%%lonjLLJkjLONJmonjJJ%KMN%pj0oLOM%JKK%%
2210aMOMln%NLkpmJKjopljJ%KKJkmkKNMNNMjpj0mJM%k%MMjlKNMJ%LJmqlNJ0Nmqoj%LNKlomjkml
2135a8OJ0OmrnKJmmJNJkJRJ3RjppnkjLLLLLJkomJPOKjlkj%j%JKL%oj0j0nJPJ0J1Plj0qKJ0J0Jn
2069A5pnkJNQPjpo%K%nn%MKlqmLRQ%pokMLjnmJMPKlon%LJllLQRKmpqom%K%mqo%MPMJJLOPL%k%%
1994BlomKM%mkMQNJjKKkrj0p%NJ0RMmqkMNmj0j0kJklMJ3J8J0lj1rkKJklkJ%jkkj%%JKMONJlpo%
1926a1POKkJOP%qqjPN%oqpm%NOOJk%KMLJjkkklnnjKKknkOQNkmmmnnJOPJml%NOPPMknnk%JJ%kml
1850cKQQLnj0rn%NNKmnJNKkmJPN%mjK%jjLKlplLPKkjKOPL%lmlJKjmm%K%lmk%mmkLNM%k%KMOMLJ
1775A8KKjnpkKJnmLPLoj1pk%%LRRLnj0j1pkOJ1QjrnMRKornJNQO%qrkOOjmJRQLmppomKPOL%JJo
1705cj1qLJ2J2Llmlk%KML%jj%KJjljPJ2J0jj0j0kMM%kknqnLOKnmKMjnkPPJlLQNpj6rMJ0P%lllk
1637aJLLjopn%MONJlkJKjmkKL%kl%%%KKJjk%%nolMQN%klmmkKLKjkKNOMjormKOJno%MM%jLNK%LP
1561A0O%mokjjk%MNNMJlpojLKJ%LOJmrnKQNjolKMjooKOKlmKMJl%LMjnjK%npkLLkmjLMLKL%npn%
1486a0%jljKK%kkj%MOPMJkkjJ%mrj1oLJ0J2RONL%nqolkj%JJJLOPNkmjMMkj1j1mLK%jMO%opjONj
1415BkjKjkkJJmqnJLJkkJLJ%j%%%%lkKQPKopmkmlJOMmpmOJ1J1ROKnqo%L%ljLLjnolLQRO%jJMJn
1341A2oJQOjnmlmnkPRLmnk%lkJMJjkKKlnjNQKnrrmJNNKjJNOKkljjknk%KMNMKkjKMKlpj0j1j0lM
1269b2QLnokNRRPLknjOPM%jjml%POlj0oKMkpmMOOMKnj1j2JJ3J4LnjPOlqnjklljJjJKLlon%JjKQ
1199DJ1Lrj3pJKj%NOJjj%mqmMRLmjQJ4QlqokJ%jjmlMJ1J0Mmmj%jkkjmokMRNjlJNMK%Jkqj4j3kO
1129eNkqnKQNlqrkMQPKjkJLMKjllJLKkpmKMjonNJ1PjlKROkplKK%%KJkonj%J%%lmkNQNjl%L%mqp
1054gnojNJ1QjppkJJNPP%nnKM%poKRR%rj0mKMMLK%klkLK%lkJLKJ%jmm%NOL%%JjonJRQjqrlLMJk
980AmnlkkllJLJk%LN%nmKMKJMRNoj0lQJ1NlkJjoj1j1plLPJ2J1Nkppo%MOK%%MOLlmljjjKNMjl%M
908IMJlllmljKK%jKKjpqjONjnlJKKKNNjmlMOKllj%jkLMJmmjjnpkPQJnlNQMJKNL%%Jlj0rjJ0Po
834Ij2pNPkroJMK%LN%oqjNQOJkmjKKjnmJNLknjLOPON%nnooolKQO%pol%J%%%JKL%nqpkNQRNJkll
758fljJNPMlnkLKjkLPMKKLJrj6j2%OPLNPLnj0o%%ormMOJkKQQkj0qJQKoq%J0J3Q%ml%JKKknlLOL
686A0no%QRKnnjNOKoj1j1mMRPOOOkj2j6j1jNNLLKjnpnJPQOkpqlJLLORNlj0j3qljLNQNMKJ%lmlj
617h%j%%mo%PJ1LpoKPLkjLMknJOLnj0nJKj%ORO%j%jlmjJjlkKPRQNjrj2qKJ0J2J0Lkpn%NLllKP
547C1J0J0J6K3K4J7QJlnrj0j1j3j8j9j4pmml%MLlonJMM%nn%NMlojPQjj1j2nLMMNPN%lnpo%PRMl
485B1nJMJkkjlomMPLlmKMK%KNMjkKNRJ8L8O0O3M0Pj9k7k8k7k6k3k0j8j7j8j5q%NMkqojKlnlLKj
425A0m%M%op%OO%jJM%mlJMKjmmkJMjoo%NJomLQLprlLOOOMlqmKMnr%J0Ppj1JJ4J2mj2nQJ0%pnj%
354cmmjJkjKOLjkJKJjj%JKMLlqrlKJjjKJklJRJ2Q%prlNJ0NkrqokJJ0J9K0J4MmpomjJjqj1nLNjn
284A0ljJKK%qj5j1JP%j3j3JJ4J2MJLMJlJMLjj%kpoMJ1PmpjM%prpnojNQMkJONjpompq%J0J3Olmk
217b0mnkNNjmLQLooJOkj1j0jLJJQJ3OkjONoj3oOQ%mJNJoqlmnlNPjj0oNR%rj1qomMJ1RlqjOLnl
149e4J1J3%j7j9qkoj0olrj5j0MK1L2M3N8O2M8K5Q%qk0k4j5%KjlLOmj6j8j3j1j1qlkrj2lPOJ%NM
96A9mj1jJ2J1JkMQkj3qMJj5k1oJ0PrpPJ3jqPK8K4Jj4qjj2k4j5OJ5OMJ9L0J8KOK6L0J5J0K4L7K1
44B44moJ4K0NKL2Q2J20J56K02K22J61M4m0l3RNl5k8M3J01R6Q7J41K16K16J58J67K74L44K69J63
10C447K01L45M37O62J634L697O115P288O066K875o06k898l740l809l711l509l052k432j909
-9G101j580j315j006p22n62m84l74k21j19j06j08n6J2K4j6k3L8J18J51J36J02N2k2r5j17r1o8
-37F49q1j00q7m9l1m0m6k7j0j8l3k2J0K3Kk1j6MJ3QRJ5J3qk6k5j3j0j3nJ5K3J3lmKjrkJ6K3Pj4
-80A31j9j5k2l8l7j5QQlmPJ3NjOJ4RnrkJrk1j8qomNK2K4Mj8j9njj0j2kNnk3k7j5nlLK3M6N2M3
-131D8L5L3K5QrpNPoj5j0jmj1j2mJmqlPOlpm%mrj0pprkRJ4Nrj0kLLKNMkpmKkj1j4mQRkpjOM%kN
-194B1QN%jKNNKlpqolkmmkJkl%PP%mkMO%ljjkjMJ0P%omlnqkOOjokOQLllk%LONnj4j2%OJplNQLJ
-267A6OJ0Mpj0mJjokMLkmJM%ooKNMJ%%lmKROmqkRRjpqk%JKJorkRJ3KrrkJnj0mNOjmLRRLjklmm%
-338bK%%NJ1J0%nmKjpj0m%Kjj%%%LOOJllKOOMJmj1j5j0lMPPMjqj2oOJ2J0JoplMRJ0Nlpnj%JKNK
-404A3mqoJM%ml%%jnnkLNNLKPJ0Plj3j2kNLkmJMJjkkmpmKMJ%OJ5J4Moj2rl%J%kjLQQ%ml%jljOQ
-474A5Jj0j2mKKkkLKkm%NMJ%LKnqkPJ0Jrj1qk%KNOLLORPJmmnnmjOROjnol%jjjJLMMKkml%MM%nk
-545ENJ0QLKORRJ1K1L3L1J0j2k0j3mnj2j7j8j6j3pjKlqqkjnqlLOKkkLMLJKJjj%LMONL%ljK%pj5
-606Ej2nMNLJkopn%PJ0RNlj0j0kPQLJKJmqnNJ0NmmKOKmm%jlmJM%qj2pjKj%LPQNJjjjjkkKNLjol
-676hMPLkl%kpj0nLPLJJMNLMKjoplKLJKLMJLNMmj0q%PMjmllmkOJ0Nnj3j0nJMNOLjjKLKj%%krj0
-746a7mNRNKjJ%JKMJloonnomjJ%kkJLJKNPOMJ%KKkmmmkjk%KLJkj%JlmkNRNkomkjj%%kmkMNKlkN
-822a5RNkn%MNKk%KMNKknmjKKLOPMmroJNKkk%jnj1j1rjOJ0J2P%ml%MOLjmjMPJqj3pMJ0Nnj0pjL
-890iNOOOKklljjllmonjNPLkm%KkonLRO%kJLJmol%klkMOMKLMMJkmjLKlj1j3pOJ4Q%mJNKlljkp
-962ij0kRJ2O%llprnMJ0PLLMMjkKKknJRRJnlJmj4j3kRPkp%ONjljkmkMOMljOJ1PJlmllnnnkKQRN
-1033B2jjJjmolkmqkQJ2Lrj2kRJ3QLmrj2rkKJ%KK%mojL%kjOQLlpokLPPKklMPKrj3qLNKjJOQLkp
-1102bro%NKlnjMLKKMM%j%Klpp%OMKLRJ0MlppqojMQNJJlrj2qLJ0Ok%J1K0J2nj6j5pkjJMPN%lmk
-1169a%JJjlppmMJ2J5J0jrj3j2pmJMOM%%KJmpnKRJ2Pjonj%j%LRQKmjLLknkL%rj1nOPjojORM%%J
-1237I%kklmnkLKJkKMLklKMJlkMMmj1r%MJmnKPQPKkrrlMPKlkKKJ%KKKknppkPJ4J2LopjJ%kl%%l
-1310emljJLNPPOML%mrqkMQQMkpj1pmlnplMROJl%KNLKJ%kmllmnmjJJjKNQLkkLOJmjQJ1Jj1j3j
-1380fJ0QlrnKMKLQJ0Jqj2nKLjjj%kl%KLK%jknmJONM%lnpkQJ5J2jj0j1kLKlmjKL%nqn%POJmjMO
-1448EJnnljno%RRJqpJJ0Pjrj0lOJ1J0Mkmj%kmnJM%oj1oJNNKMPPKlmkKKjkkKNKlqnLRNkpmKM%n
-1518dojOJ0NjpqmKNLLMN%qj2pNJ2QjplLMKjk%jkjklomJPQNMJkpqokJ%jLNN%kjKMNMLkmjMNjqr
-1591alKK%%OPMjjKKlpnJNMKjmnnkjklJNPKmnkLNLLKkqqlKK%kJMOL%jlmkjkmlLJ0J0KmnJNLkml
-1664D%LMKkljNP%qj3oOJ4Rjrj1nLONkqj2pjMNLNPMlrj0o%OPPOMJkmppm%K%nmJRJ0KnnJLJnnJP
-1733fJ0J1PKoj3j2oLNLJMOPKjkkkjJJkoojLJnpkQJ2RLkjkoj0j0qmMJ1J5R%omlmomMRNnpJPNln
-1799aKQOmqn%jlmjJjkkjklnm%LQJ1QJljNPkpnLQJoql%%kkJJJ%LMOLkorpjMLKJMKln%MJqj1nOP
-1873a8%mMJ2J2Kml%%llJNPOMJoj1pJMlj3j4nOJ1J1PLkmjJJnqlJKjkKPPNjkmkjJkmm%OPONLKkl
-1940H%KJlmjMLjljLNLJloo%NN%ljNJrj4rJOMKMMKkjKMJj%Llj0j0kQQ%lkKJlkNJ0QJlk%J%JJ%k
-2011A5mlloqpjOONLMNJpj0pJPLmplLNKkmkj%%LLLKKMMKknnnljjKMNMjopnj%jl%MNL%%%%%JKNM
-2085CJjJMNJlnn%LMJmqo%NJproLOLKMPNkl%MLJJMMjnmkkqrlMQPL%%j%KJjk%KjpqkQJ0MllJJll
-2159@%OQNK%%mmnlll%Jjnpm%JKOQPJmmkj%JJ%mmJNO%kjJlrr%RJ0OJjJKLjqj3j1%RRMJMPMmpml
-2231bnrnLRQL%loolMLlpnKNK%jLK%l%KMLJ%jlk%KKj%JJkmkKNLJjLPPjj0j2lQJ0%omNRKpj1qmk
-2302b0jLMKJKMKnplNQLmomLNOLKKKJJjJJlqq%RJ1KnkQJ2RJjoj0j5rNJ3PnpjMKmlLOjqrjMMJkk
-2372Aml%NMJll%KJ%JjnplNRPLjmmolJLlrrkOPKmm%KKLL%oplNQKlkOJ1Qjqpm%NPNjnmjJln%OQK
-2446Dj%MN%nljjj%J%oj0nLJ0QJjLNKnnJQOmj1rjMJmlNROlqojLJ%jkjjKLJ%KNPMkqj2j1mNJ1Qj
-2515AokNO%kJMlj0j0m%npjQJ2MjLJ0RjqnJJnpkMMLLOKmp%QPmj3qJROKllnmlKPOKlnnjKLLKKjl
-2586bk%KLJJNNjrj0jQPkrpjLJjkjKKKMLKKKLKK%nj0j1pKPN%%NJ0QjrrjOPJmmKNLmrnKQNlj0rk
-2656a3NMJ%OJ1J0%qj0nmprmPRLppKPOkpolJOJ1J1Ojnmlmm%MMKkj%lmmjJJKPRLnj1lOJ1Ojmklq
-2723crmNPNLOPMlpoj%%%KKjljLOMjonjK%oj4j4pNJ3J2Njmlmk%KjmlKRRNklmjKOOjrj3qjMMNQP
-2793DM%%%mqqjOPM%KNMLjmpojORJpj2qlj%JNNL%%KLK%jlm%LLlrj1n%NOOJoqlRJ1Nl%RJ2Lj1j3
-2863bp%JkjNPMkmljJKJmrj2oPJ7J9J3MjlkjlnonkJKLJkkJNQOKkkklnolj%lolLJ0J2P%oomjkkl
-2932coomJNNLklnqrqjPRPNNMK%%KKjnm%ML%klk%MPO%lkMRNjqpn%KK%nqnMJ0QjpmORNkmnnonkL
-3006iLK%LMK%llkkjjJKLLNLJkmmlKNMkrj0nj%kjLNK%KMNMOJ2J2NnqnjmqqjNOKjnqoKJ0QjplMO
-3077A1jnmknp%RJ3NmlKMlqnJKlmKONjojNJ0NlqoJPNmj0nORNlmlmrr%QQJmkKNNM%mnJQRjrp%%q
-3149fj0jJ2J3Jqo%JorkPJ0PLKknrok%%MJ0J3PlqoJL%lmnnk%KjllKQO%onMJ1J2LnqokjkjJMNML
-3216H%klkklomKONK%JMMK%llk%KjlnmJOPLjkjLLjnjNOjqoLP%qnNQkj3qNJ4Rmqnjjmmk%JNNLkk
-3289cLMkqnNJ2RjnkJjkjjnqnMOKnkMP%prmj%JLLJ%JMJknm%KMOONMMKoj3j0LJ3J2%rpJMK%LLkq
-3359Bj0mLOOKjkk%JknmjKJ%LPPKnojJlonJOMJKNOjqj4j0lMONMJjlKRJ4J0JpolJKNNKqj5j1%QL
-3428Cmrn%KKK%lnlMPOKKLJnqmKN%lkKLJ%j%JLK%ll%KJmqplKLLLLNPOJqj3oLQJpqkNPLklmJNPM
-3502@lol%MNPPMlomKJnj0oLRMnrqjKNLKJJMOLknn%MNKkkKMJmom%J%KQJ0Kj0j5oMOkqnOJ2J2RO
-3571B4Mnj2j4pLPM%jJNNKmqrnJPPKjjKjnrpkOQNJmm%OJ0Q%npnlKK%nqnMOKljRJ4Nrj4nNO%ljK
-3641BJkkKJklKPN%k%JmqmOJ0Krj1lNRPMjpqkQJ0Jrj1kONJ%J%lokORPM%lqro%MMMNM%nojMLjl%
-3712GKJlom%%j%MNJqrnJKJ%NOMkkMPOjnnkk%LOLoj0qJKkpkQJ4J2Lkllmn%PRKrj3rjKLJMPOJno
-3783@jNNknkPJ2Rjj1j2oJNJnolMN%ppJQJ1O%lnnjNQQ%mommom%MNLLLJml%NMJ%LKoj3j2KJ3J1%
-3850A3onJ%kkMLlj0rJQPKjjjjjkjjjJLNNMJlon%M%l%NOlj0pLPJmLJ3J4kj6j3KJ0Pk%OQ%ppj%m
-3917Go%MKmnJMJmjQJ1Lj0j4rKNL%KLKkmnjKNPNKlnonom%L%mokOJ2QJpj0q%QJ0PJlmlkjLNJlmk
-3987iLJklKNMjljJ%kkJKJJMOJqj1rmlnjQJ2RK%NRJj0j7j2jNPNL%%%KKKlnnk%%jJQRLormNOjpr
-4057b0kLORQN%jJONmqoKPOKJLJoj2j0lKLLJjlnmjMM%prpkKKJKLNMJJJjlnkKNMLLMMLNOLpj5j2
-4127a0lLKjJPJ0Lqj1lPRJopmKKJ%kjj%LONNLKjnmjNOJmlJMkpp%Lkj0j0mNRONLLJjjkmojNQMn
-4197Dj1qljjjJOPN%j%MOL%jKM%lmKOOkppJOO%orplMNKknlJMPQOLlqplLMKknpqnjMOKjkKMMKjl
-4271AljMJ0J3Pkj1j1qlkjjJKJJ%KLMKkrj1pKQNlpp%PJ0RKoqmMROkl%LKmrqlLPNKjKPJ0Qjonlk
-4339Hnqqn%ORJ0MlookJKLJkmn%J%nolKJ%JNQMkpplLRJ2J0MmrplJ%mnjMQP%ookKMLKJlmm%ML%j
-4411c%%JJMPNJjJPO%opmjlnnl%%JJ%lmLRJ0Knrnj%jllkJPJ0OlpmMRPKJLJlnkNOjj0j2oKPN%jj
-4483F%lnpkLJklLRJ0KkJOO%pnjJjl%L%nnkLJjjMPLjnpomKQQL%%LJnqo%MLKKKjnmmlnnkJMKJJJ
-4557iKNPOjrrkLKmrlNJ0J0LknnlJMOOMjmnjMPLmonkjkjKL%nnJONJ%LNlj3j3kJ0R%qlLLmmNJ3Q
-4626A2pj4oPJ0KlkL%nkOJ0LoqjOMmj0p%NPMlqpJQQ%mjLLlpkRJ3J0Joqrpm%LMJnj0rjRJ3OkojO
-4692aROPPNnj2j3pk%JOJ0Qjqo%Joj0oJLkolOJ0OJ%LJoqjJ0J2OknjkornMOJppkOPM%kjkklll%K
-4761a6MKlomJNM%%MROJlJNMmj1pLROkolLJlokLOLlkJNOK%jjkml%KJljLOO%mmmklkjJjkjJMONM
-4834A3JlkKNNkppmjlljLLJJ%JKNQOjqpJRMpj2oKLmoJQQkqmNJ1RLjkknrplLM%nplk%jJOQOJk%L
-4906EMJmqqmLQQNJJJ%nqoLRJ0MknmkjKMMkprrml%KMMJj%ORNnj0nORMnj1qkJMKJjjJKj%KOOLkj
-4979GJjorjQRjj1j0jM%nkMRMjkJLKkkJKMNLjlnmoonLRPkplMNkpnKNMJJLLJkkjknmjKJJJJJ%ll
-5052a1%LNKlomKQPOLJ%jmnmlJNNJnqnJLJj%MOOJjnnnlkLPPKorlOQ%j0j0jOMmnNJ5J6Nnj1j0ol
-5120iJLK%jjj%KLM%jKQRJqj3rjLNJlnmMJ1J0Jj0j3ojKjjKLMKjmnnJQJ2J0KnomLPNlrpKRJ0Jp
-5186Ij1q%NOLkkKNMlpm%K%mmk%JJJKLLNMKnpojJLMLNL%mnomj%%%jKNPQMjnnj%mokOJ0OkokLLj
-5260InlknooJNPNJkomJNJmojNO%%LOMjl%%mn%RJ1LorlKONM%nrpjKLJKLKllJOOKknnpqkOJ0Mp
-5332Bj2mQJ3PlroKRJ0PKnqqlLMLJ%knqqkJK%jKONjmjORLlpmJMJmolJOPOJpj1r%RRMjjJjllJNL
-5403A1mokPJ0MlnjLMJ%j%%JKJlpqnJPRO%nqojKjpqmLOLjkJLK%%LMJjJK%ooKJ1J3O%%%krj2pMO
-5473IJqrlNNLkllkklmnjNJ3J2MmolKjopmLNJkllljKNMKJNQNmplOQLnpmmqrkNQOMNNJlnmk%JLL
-5547CjmljJjmkNPLkonmmjMQRO%nomjMOKkkLQMnrnLPKoplMMjomJMKJKQROKlnrj1rkOQLkml%KLM
-5621BKJklkkkkj%%JNQMmrpLPM%LRJ2Lj1j8j4lNNJkljj%%JLJ%jLPPKmo%MJpj1oMJ0J0OJ%JLOKl
-5689B2ppk%kmlJJjkKOOK%LN%mqnllkMQQKl%K%ormKJnp%QQJppl%knjNQMlqmJNLLJJjk%MM%nnjJ
-5764ijl%OOjomPJ3J1KnpopnjMOKkoojNQJ0OKknnmJMLlnm%Jjljj%kJNQQNLJmooljmomKMJlnk%K
-5836a3NPOjqoJOMjJQRNln%%mrmOJ2Pnj4j1mJJjKNQNJ%jkmm%OOKmplLPPKmj1j0nJOLJ%JKJjkll
-5905ekKNMjnnjJ%lmJOJ0PJlnjJJklkLNM%nqlMROlpnLROjnpoolJOQNKkkk%%jkjKLLJJ%jpj1qmL
-5979a9ORRO%onKOLjlkmnmLPMpj0mNOJkJONKj%JJkkjj%JNPKlonkK%lmlKLKJ%LKlpnLQPLjklmjN
-6052HP%ppJOLoqkNOJ%%kmlNJ1PkpmJKlnlJLLK%km%JJnpnJMLKLNKlokKLL%jjk%LNKjkj%%lllk%
-6126d%%%JKMML%lkjKMNLknlj%koqmJNOMKjkj%Jjkl%MMjrj0mNJ0QKjjjmpnJOOLKLMJmrqjOQJq
-6199cj0mMQN%kJOOLjlmmkjJJLLKj%%%lno%NNKkjLPMnqo%LJljMO%opLRNnqlNPKkk%lpmLOJnlKM
-6273@Kjj%mpoJPP%j%LJllJNL%%JMNLJknnmljj%J%kljKLJ%%kkljJJjjKPQMkolKLjnom%MLKJKjk
-6348bkKMMknmk%jjj%JKMKjolKOJnqkJKlkMQMmqmLOOOOMlqojNLkmnljKONKjkkjlnljLLMLLLLKJ
-6424Imopnlj%KK%jJNPOjookLLJjnpoj
-6451b3 $$ checkpoint
##END=
##TITLE=Peak list
##JCAMP-DX=5.01
##ORIGIN=UNKNOWN
##OWNER=UNKNOWN
##DATA TYPE=NMR PEAK TABLE
##DATA CLASS=PEAK TABLE
##BLOCK_ID=3
##CROSS REFERENCE=NMR SPECTRUM:BLOCK_ID=2
##DATE=22/03/03
##TIME=15:04:52
##TEMPERATURE=25
##LONG DATE=2022/03/03 15:04:52 
##.OBSERVE FREQUENCY=600
##.OBSERVE NUCLEUS=1H
##.SOLVENT NAME=H2O
##NPOINTS=20
##XUNITS=PPM
##YUNITS=ARBITRARY UNITS
##PEAK TABLE=(XY..XY)
(6.926, 19715.565)
(6.938, 19174.58913109756)
(6.926, 19715.565)
(6.938, 19174.58913109756)
(6.97, 5650.1924085365845)
(6.994, 6171.132134146341)
(6.97, 5650.1924085365845)
(6.994, 6171.132134146341)
(7.307, 9453.720276930893)
(7.31, 3459.5740752032516)
(7.321, 11814.645828252033)
(7.334, 8822.581763211381)
(7.307, 9453.720276930893)
(7.31, 3459.5740752032516)
(7.321, 11814.645828252033)
(7.334, 8822.581763211381)
(7.307, 9453.720276930893)
(7.31, 3459.5740752032516)
(7.321, 11814.645828252033)
(7.334, 8822.581763211381)
##END=
##TITLE=Assignments
##JCAMP-DX=5.01
##ORIGIN=UNKNOWN
##OWNER=UNKNOWN
##DATA TYPE=NMR PEAK ASSIGNMENTS
##DATA CLASS=PEAK ASSIGNMENTS
##BLOCK_ID=4
##CROSS REFERENCE=STRUCTURE:BLOCK_ID=1
##DATE=22/03/03
##TIME=15:04:52
##SAMPLE DESCRIPTION=Phenol
##TEMPERATURE=25
##LONG DATE=2022/03/03 15:04:52 
##SOURCE REFERENCE=HMDB0000228
##.OBSERVE FREQUENCY=600
##.OBSERVE NUCLEUS=1H
##.SOLVENT NAME=H2O
##NPOINTS=20
##XUNITS=PPM
##PEAK ASSIGNMENTS=(XMA)
(2.0, <d>, <5>)
(2.0, <d>, <5>)
(2.0, <d>, <9>)
(2.0, <d>, <9>)
(1.0, <t>, <5>)
(1.0, <t>, <5>)
(1.0, <t>, <9>)
(1.0, <t>, <9>)
(2.0, <m>, <12>)
(2.0, <m>, <12>)
(2.0, <m>, <12>)
(2.0, <m>, <12>)
(2.0, <m>, <13>)
(2.0, <m>, <13>)
(2.0, <m>, <13>)
(2.0, <m>, <13>)
(2.0, <m>, <10>)
(2.0, <m>, <10>)
(2.0, <m>, <10>)
(2.0, <m>, <10>)
##END=
##END=
